#------------------------------------------------------------------------------
#$Date: 2016-02-14 16:26:36 +0200 (Sun, 14 Feb 2016) $
#$Revision: 176435 $
#$URL: svn://www.crystallography.net/cod/cif/1/51/10/1511031.cif $
#------------------------------------------------------------------------------
#
# This file is available in the Crystallography Open Database (COD),
# http://www.crystallography.net/
#
# All data on this site have been placed in the public domain by the
# contributors.
#
data_1511031
loop_
_publ_author_name
'Hester, J.R.'
'Godart, C.'
'Salamakha, P.S.'
'Sologub, O.L.'
'Leroy, E.'
_publ_section_title
;
 Ab initio structure determination of new boride Ce Pt3 B, a distorted
 variant of Ca Ti O3
;
_journal_name_full               'Journal of Alloys Compd.'
_journal_page_first              10
_journal_page_last               17
_journal_paper_doi               10.1016/S0925-8388(01)01913-2
_journal_volume                  337
_journal_year                    2002
_chemical_formula_sum            'B Ce Pt3'
_chemical_name_systematic        'Ce Pt3 B'
_space_group_IT_number           99
_symmetry_space_group_name_Hall  'P 4 -2'
_symmetry_space_group_name_H-M   'P 4 m m'
_cell_angle_alpha                90
_cell_angle_beta                 90
_cell_angle_gamma                90
_cell_formula_units_Z            1
_cell_length_a                   4.00433
_cell_length_b                   4.00433
_cell_length_c                   5.07547
_cell_volume                     81.383
_citation_journal_id_ASTM        JALCEU
_cod_data_source_file            boron0-1_114.cif
_cod_data_source_block           B1Ce1Pt3
_cod_original_cell_volume        81.38344
_cod_original_formula_sum        'B1 Ce1 Pt3'
_cod_database_code               1511031
loop_
_symmetry_equiv_pos_as_xyz
x,y,z
-y,x,z
-x,-y,z
y,-x,z
-x,y,z
-y,-x,z
x,-y,z
y,x,z
loop_
_atom_site_label
_atom_site_type_symbol
_atom_site_fract_x
_atom_site_fract_y
_atom_site_fract_z
_atom_site_occupancy
_atom_site_U_iso_or_equiv
Pt2 Pt 0.5 0.5 0.1201 1 0.0
B1 B 0.5 0.5 0.68 1 0.0
Pt1 Pt 0 0.5 0.5209 1 0.0
Ce1 Ce 0 0 0 1 0.0
