#------------------------------------------------------------------------------
#$Date: 2016-02-13 21:28:24 +0200 (Sat, 13 Feb 2016) $
#$Revision: 176429 $
#$URL: svn://www.crystallography.net/cod/cif/1/52/17/1521782.cif $
#------------------------------------------------------------------------------
#
# This file is available in the Crystallography Open Database (COD),
# http://www.crystallography.net/
#
# All data on this site have been placed in the public domain by the
# contributors.
#
data_1521782
loop_
_publ_author_name
'Putz, H.'
'Schoen, J.C.'
'Jansen, M.'
_publ_section_title
;
 Structure prediction for crystalline Ca3 Si Br2 using an environment
 dependent potential
;
_journal_name_full
'Zeitschrift fuer Anorganische und Allgemeine Chemie'
_journal_page_first              1624
_journal_page_last               1630
_journal_paper_doi
10.1002/(SICI)1521-3749(199910)625:10<1624::AID-ZAAC1624>3.0.CO;2-K
_journal_volume                  625
_journal_year                    1999
_chemical_formula_sum            'Br2 Ca3 Si'
_chemical_name_systematic        'Ca3 Si Br2'
_space_group_IT_number           71
_symmetry_space_group_name_Hall  '-I 2 2'
_symmetry_space_group_name_H-M   'I m m m'
_cell_angle_alpha                90
_cell_angle_beta                 90
_cell_angle_gamma                90
_cell_formula_units_Z            2
_cell_length_a                   4.54
_cell_length_b                   6.317
_cell_length_c                   13.51
_cell_volume                     387.456
_citation_journal_id_ASTM        ZAACAB
_cod_data_source_file            Putz_ZAACAB_1999_811.cif
_cod_data_source_block           Br2Ca3Si1
_cod_original_cell_volume        387.4557
_cod_original_formula_sum        'Br2 Ca3 Si1'
_cod_struct_determination_method theoretical
_cod_database_code               1521782
loop_
_symmetry_equiv_pos_as_xyz
x,y,z
-x,-y,z
x,-y,-z
-x,y,-z
-x,-y,-z
x,y,-z
-x,y,z
x,-y,z
x+1/2,y+1/2,z+1/2
-x+1/2,-y+1/2,z+1/2
x+1/2,-y+1/2,-z+1/2
-x+1/2,y+1/2,-z+1/2
-x+1/2,-y+1/2,-z+1/2
x+1/2,y+1/2,-z+1/2
-x+1/2,y+1/2,z+1/2
x+1/2,-y+1/2,z+1/2
loop_
_atom_site_label
_atom_site_type_symbol
_atom_site_fract_x
_atom_site_fract_y
_atom_site_fract_z
_atom_site_occupancy
_atom_site_U_iso_or_equiv
Si1 Si-4 0.5 0 0.5 1 0.0
Ca1 Ca+2 0 0 0 1 0.0
Br1 Br-1 0.5 0 0.169 1 0.0
Ca2 Ca+2 0 0 0.345 1 0.0
