#------------------------------------------------------------------------------
#$Date: 2016-02-13 21:28:24 +0200 (Sat, 13 Feb 2016) $
#$Revision: 176429 $
#$URL: svn://www.crystallography.net/cod/cif/1/52/45/1524507.cif $
#------------------------------------------------------------------------------
#
# This file is available in the Crystallography Open Database (COD),
# http://www.crystallography.net/
#
# All data on this site have been placed in the public domain by the
# contributors.
#
data_1524507
loop_
_publ_author_name
'Hauge, S.'
_publ_section_title
;
 Refinements of the crystal structures of selenium dithiocyanate and
 selenium diselenocyanate
;
_journal_name_full
'Acta Chemica Scandinavica, Series A: (28,1974-)'
_journal_page_first              313
_journal_page_last               316
_journal_volume                  33
_journal_year                    1979
_chemical_formula_sum            'C2 N2 S2 Se'
_chemical_name_systematic        'Se (S C N)2'
_space_group_IT_number           62
_symmetry_space_group_name_Hall  '-P 2ac 2n'
_symmetry_space_group_name_H-M   'P n m a'
_cell_angle_alpha                90
_cell_angle_beta                 90
_cell_angle_gamma                90
_cell_formula_units_Z            4
_cell_length_a                   9.8899
_cell_length_b                   13.0364
_cell_length_c                   4.4231
_cell_volume                     570.264
_citation_journal_id_ASTM        ACAPCT
_cod_data_source_file            Hauge_ACAPCT_1979_444.cif
_cod_data_source_block           C2N2S2Se1
_cod_original_cell_volume        570.2645
_cod_original_formula_sum        'C2 N2 S2 Se1'
_cod_database_code               1524507
loop_
_symmetry_equiv_pos_as_xyz
x,y,z
-x+1/2,-y,z+1/2
x+1/2,-y+1/2,-z+1/2
-x,y+1/2,-z
-x,-y,-z
x-1/2,y,-z-1/2
-x-1/2,y-1/2,z-1/2
x,-y-1/2,z
loop_
_atom_site_label
_atom_site_type_symbol
_atom_site_fract_x
_atom_site_fract_y
_atom_site_fract_z
_atom_site_occupancy
_atom_site_U_iso_or_equiv
S1 S-2 0.44287 0.11843 0.27702 1 0.0
Se1 Se+2 0.54179 0.25 0.5032 1 0.0
N1 N-3 0.2079 0.1014 0.636 1 0.0
C1 C+4 0.3026 0.1093 0.4956 1 0.0
