#------------------------------------------------------------------------------
#$Date: 2015-07-14 02:59:39 +0300 (Tue, 14 Jul 2015) $
#$Revision: 151860 $
#$URL: svn://www.crystallography.net/cod/cif/1/52/89/1528973.cif $
#------------------------------------------------------------------------------
#
# This file is available in the Crystallography Open Database (COD),
# http://www.crystallography.net/
#
# All data on this site have been placed in the public domain by the
# contributors.
#
data_1528973
loop_
_publ_author_name
'Warczok, P.'
'Mittendorfer, F.'
'Kresse, G.'
'Kroupa, A.'
'Richter, K.W.'
'Ipser, H.'
_publ_section_title
;
 Thermodynamic modelling of the partially ordered solid solution Hf(5-x)
 Nb(x) Ge4 supported by ab initio calculations
;
_journal_name_full               'Solid State Sciences'
_journal_page_first              159
_journal_page_last               165
_journal_volume                  9
_journal_year                    2007
_chemical_formula_sum            'Ge4 Hf2 Nb3'
_chemical_name_systematic        'Hf2 Nb3 Ge4'
_space_group_IT_number           62
_symmetry_space_group_name_Hall  '-P 2ac 2n'
_symmetry_space_group_name_H-M   'P n m a'
_cell_angle_alpha                90
_cell_angle_beta                 90
_cell_angle_gamma                90
_cell_formula_units_Z            4
_cell_length_a                   6.816
_cell_length_b                   13.23
_cell_length_c                   6.96
_cell_volume                     627.623
_citation_journal_id_ASTM        SSSCFJ
_cod_data_source_file            Warczok_SSSCFJ_2007_1206.cif
_cod_data_source_block           Ge4Hf2Nb3
_cod_original_cell_volume        627.6227
_cod_database_code               1528973
loop_
_symmetry_equiv_pos_as_xyz
x,y,z
-x+1/2,-y,z+1/2
x+1/2,-y+1/2,-z+1/2
-x,y+1/2,-z
-x,-y,-z
x-1/2,y,-z-1/2
-x-1/2,y-1/2,z-1/2
x,-y-1/2,z
loop_
_atom_site_label
_atom_site_type_symbol
_atom_site_fract_x
_atom_site_fract_y
_atom_site_fract_z
_atom_site_occupancy
_atom_site_U_iso_or_equiv
Nb1 Nb 0.1663 0.25 0.9939 1 0.0
Ge3 Ge 0.3158 0.5405 0.4619 1 0.0
Nb2 Nb 0.1583 0.6242 0.1653 1 0.0
Hf3 Hf 0.0128 0.0907 0.3254 1 0.0
Ge2 Ge 0.3094 0.25 0.3477 1 0.0
Ge1 Ge 0.0395 0.25 0.6112 1 0.0
