#------------------------------------------------------------------------------
#$Date: 2015-09-17 03:53:39 +0300 (Thu, 17 Sep 2015) $
#$Revision: 156514 $
#$URL: svn://www.crystallography.net/cod/cif/1/53/11/1531164.cif $
#------------------------------------------------------------------------------
#
# This file is available in the Crystallography Open Database (COD),
# http://www.crystallography.net/
#
# All data on this site have been placed in the public domain by the
# contributors.
#
data_1531164
loop_
_publ_author_name
'Chizmeshya, A.V.G.'
'McKelvy, M.J.'
'Sharma, R.'
'Carpenter, R.W.'
'Bearat, H.'
_publ_section_title
;
 Density functional theory study of the decomposition of Mg (O H)2: a
 lamellar dehydroxylation model
;
_journal_name_full               'Materials Chemistry and Physics'
_journal_page_first              416
_journal_page_last               425
_journal_volume                  77
_journal_year                    2002
_chemical_formula_sum            'H2 Mg3 O4'
_chemical_name_systematic        'Mg3 O2 (O H)2'
_space_group_IT_number           164
_symmetry_space_group_name_Hall  '-P 3 2"'
_symmetry_space_group_name_H-M   'P -3 m 1'
_cell_angle_alpha                90
_cell_angle_beta                 90
_cell_angle_gamma                120
_cell_formula_units_Z            2
_cell_length_a                   3.053
_cell_length_b                   3.053
_cell_length_c                   20.125
_cell_volume                     162.450
_citation_journal_id_ASTM        MCHPDR
_cod_data_source_file            Chizmeshya_MCHPDR_2002_742.cif
_cod_data_source_block           H2Mg3O4
_cod_original_cell_volume        162.4501
_cod_database_code               1531164
loop_
_symmetry_equiv_pos_as_xyz
x,y,z
-y,x-y,z
-x+y,-x,z
y,x,-z
-x,-x+y,-z
x-y,-y,-z
-x,-y,-z
y,-x+y,-z
x-y,x,-z
-y,-x,z
x,x-y,z
-x+y,y,z
loop_
_atom_site_label
_atom_site_type_symbol
_atom_site_fract_x
_atom_site_fract_y
_atom_site_fract_z
_atom_site_occupancy
_atom_site_U_iso_or_equiv
O2 O-2 0 0 0.3113 1 0.0
O1 O-2 0.6667 0.3333 0.4282 1 0.0
O4 O-2 0.6667 0.3333 0.0718 1 0.0
H1 H+1 0.6667 0.3333 0.4774 1 0.0
Mg2 Mg+2 0.3333 0.6667 0.3729 1 0.0
Mg1 Mg+2 0 0 0.1271 1 0.0
Mg3 Mg+2 0.6667 0.3333 0.2501 1 0.0
O3 O-2 0.3333 0.6667 0.1887 1 0.0
H2 H+1 0.6667 0.3333 0.0226 1 0.0
