#------------------------------------------------------------------------------
#$Date: 2016-02-20 02:53:41 +0200 (Sat, 20 Feb 2016) $
#$Revision: 176768 $
#$URL: svn://www.crystallography.net/cod/cif/2/10/29/2102933.cif $
#------------------------------------------------------------------------------
#
# This file is available in the Crystallography Open Database (COD),
# http://www.crystallography.net/. The original data for this entry
# were provided by IUCr Journals, http://journals.iucr.org/.
#
# The file may be used within the scientific community so long as
# proper attribution is given to the journal article from which the
# data were obtained.
#
data_2102933
loop_
_publ_author_name
'Helmholdt, Robert B.'
'Sonneveld, Ed J.'
'Vande Velde, Christophe M. L.'
'Blockhuys, Frank'
'Lenstra, Albert T. H.'
'Geise, Herman J.'
'Peschar, Ren\'e'
_publ_section_title
;
 Structures of tetrabromothiophene and tetrabromoselenophene: the
 influence of the heteroatom on the heterophene packing
;
_journal_issue                   5
_journal_name_full               'Acta Crystallographica Section B'
_journal_page_first              783
_journal_page_last               790
_journal_paper_doi               10.1107/S010876810703652X
_journal_volume                  63
_journal_year                    2007
_chemical_formula_sum            'C4 Br4 S'
_chemical_formula_weight         399.72
_chemical_name_systematic        ' ?'
_space_group_IT_number           29
_symmetry_cell_setting           orthorhombic
_symmetry_space_group_name_Hall  'P 2c -2ac'
_symmetry_space_group_name_H-M   'P c a 21'
_cell_angle_alpha                90.0
_cell_angle_beta                 90.0
_cell_angle_gamma                90.0
_cell_formula_units_Z            4
_cell_length_a                   12.5599(12)
_cell_length_b                   3.9973(4)
_cell_length_c                   16.3267(15)
_cell_volume                     819.69(14)
_cod_data_source_file            av5088.cif
_cod_data_source_block           C4Br4S2S_phase_1
_cod_depositor_comments
;
The following automatic conversions were performed:
'_geom_bond_publ_flag' value 'N' changed to 'n' according to
'/home/saulius/struct/CIF-dictionaries/cif_core.dic' dictionary named
'cif_core.dic' version 2.4.1 from 2010-06-29 (24
times).

'_geom_angle_publ_flag' value 'N' changed to 'n' according to
'/home/saulius/struct/CIF-dictionaries/cif_core.dic' dictionary named
'cif_core.dic' version 2.4.1 from 2010-06-29 (13 times).

Automatic conversion script
Id: cif_fix_enum 1527 2010-12-29 10:47:43Z saulius 

The following automatic conversions were performed:

'_geom_bond_publ_flag' value 'N' changed to 'n' according to
/home/saulius/struct/CIF-dictionaries/cif_core.dic dictionary named
'cif_core.dic' version 2.4.1 from 2010-06-29 (24
times).

'_geom_angle_publ_flag' value 'N' changed to 'n' according
to /home/saulius/struct/CIF-dictionaries/cif_core.dic dictionary
named 'cif_core.dic' version 2.4.1 from 2010-06-29 (13 times).

Automatic conversion script
Id: cif_fix_values 1715 2011-07-08 13:25:40Z adriana 
;
_cod_original_cell_volume        819.7(2)
_cod_database_code               2102933
loop_
_symmetry_equiv_pos_site_id
_symmetry_equiv_pos_as_xyz
1 +x,+y,+z
2 -x+1/2,+y,+z+1/2
3 +x+1/2,-y,+z
4 -x,-y,+z+1/2
loop_
_atom_site_type_symbol
_atom_site_label
_atom_site_fract_x
_atom_site_fract_y
_atom_site_fract_z
_atom_site_U_iso_or_equiv
_atom_site_thermal_displace_type
_atom_site_occupancy
S S11 0.4235(9) 0.950(4) 0.2790(6) 0.025 Uiso 1.0
C C11 0.337(3) 0.851(17) 0.3548(6) 0.025 Uiso 1.0
C C12 0.238(3) 0.718(18) 0.3223(7) 0.025 Uiso 1.0
C C13 0.235(3) 0.713(18) 0.2364(8) 0.025 Uiso 1.0
C C14 0.3300(19) 0.888(12) 0.2060(6) 0.025 Uiso 1.0
Br Br11 0.3760(15) 0.955(2) 0.4641(4) 0.00786 Uiso 1.0
Br Br12 0.1244(17) 0.491(3) 0.3847(6) 0.00786 Uiso 1.0
Br Br13 0.1257(15) 0.489(3) 0.1679(6) 0.00786 Uiso 1.0
Br Br14 0.3800(11) 0.887(2) 0.0965(4) 0.00786 Uiso 1.0
loop_
_atom_type_symbol
S
C
Br
loop_
_geom_angle_atom_site_label_1
_geom_angle_atom_site_label_2
_geom_angle_atom_site_label_3
_geom_angle_site_symmetry_1
_geom_angle_site_symmetry_3
_geom_angle
_geom_angle_publ_flag
C11 S11 C14 1_555 1_555 92.0(8) n
S11 C11 C12 1_555 1_555 111.6(9) n
S11 C11 Br11 1_555 1_555 117.9(8) n
C12 C11 Br11 1_555 1_555 130.3(11) n
C11 C12 C13 1_555 1_555 113.2(13) n
C11 C12 Br12 1_555 1_555 126.8(15) n
C13 C12 Br12 1_555 1_555 119.3(11) n
C12 C13 C14 1_555 1_555 108.0(12) n
C12 C13 Br13 1_555 1_555 126.0(12) n
C14 C13 Br13 1_555 1_555 125.9(12) n
S11 C14 C13 1_555 1_555 113.3(14) n
S11 C14 Br14 1_555 1_555 115.8(10) n
C13 C14 Br14 1_555 1_555 125.9(15) n
loop_
_geom_bond_atom_site_label_1
_geom_bond_atom_site_label_2
_geom_bond_site_symmetry_2
_geom_bond_distance
_geom_bond_publ_flag
S11 C11 1_555 1.695(11) n
S11 C14 1_555 1.691(12) n
S11 Br11 1_555 3.080(9) n
S11 Br14 1_555 3.039(10) n
C11 S11 1_555 1.695(11) n
C11 C12 1_555 1.448(11) n
C11 Br11 1_555 1.898(11) n
C12 C11 1_555 1.448(11) n
C12 C13 1_555 1.404(11) n
C12 Br12 1_555 1.974(12) n
C13 C12 1_555 1.404(11) n
C13 C14 1_555 1.468(12) n
C13 Br13 1_555 1.986(11) n
C14 S11 1_555 1.691(12) n
C14 C13 1_555 1.468(12) n
C14 Br14 1_555 1.895(12) n
Br11 S11 1_555 3.080(9) n
Br11 C11 1_555 1.898(11) n
Br12 C12 1_555 1.974(12) n
Br12 Br13 1_555 3.540(5) n
Br13 C13 1_555 1.986(11) n
Br13 Br12 1_555 3.540(5) n
Br14 S11 1_555 3.039(10) n
Br14 C14 1_555 1.895(12) n
