#------------------------------------------------------------------------------
#$Date: 2023-12-05 10:34:00 +0200 (Tue, 05 Dec 2023) $
#$Revision: 288031 $
#$URL: file:///home/coder/svn-repositories/cod/cif/2/10/77/2107798.cif $
#------------------------------------------------------------------------------
#
# This file is available in the Crystallography Open Database (COD),
# http://www.crystallography.net/. The original data for this entry
# were provided by IUCr Journals, http://journals.iucr.org/.
#
# The file may be used within the scientific community so long as
# proper attribution is given to the journal article from which the
# data were obtained.
#
data_2107798
loop_
_publ_author_name
'Reilly, Anthony M.'
'Cooper, Richard I.'
'Adjiman, Claire S.'
'Bhattacharya, Saswata'
'Boese, A. Daniel'
'Brandenburg, Jan Gerit'
'Bygrave, Peter J.'
'Bylsma, Rita'
'Campbell, Josh E.'
'Car, Roberto'
'Case, David H.'
'Chadha, Renu'
'Cole, Jason C.'
'Cosburn, Katherine'
'Cuppen, Herma M.'
'Curtis, Farren'
'Day, Graeme M.'
'DiStasio Jr, Robert A.'
'Dzyabchenko, Alexander'
'van Eijck, Bouke P.'
'Elking, Dennis M.'
'van den Ende, Joost A.'
'Facelli, Julio C.'
'Ferraro, Marta B.'
'Fusti-Molnar, Laszlo'
'Gatsiou, Christina-Anna'
'Gee, Thomas S.'
'de Gelder, Ren\'e'
'Ghiringhelli, Luca M.'
'Goto, Hitoshi'
'Grimme, Stefan'
'Guo, Rui'
'Hofmann, Detlef W. M.'
'Hoja, Johannes'
'Hylton, Rebecca K.'
'Iuzzolino, Luca'
'Jankiewicz, Wojciech'
'de Jong, Dani\"el T.'
'Kendrick, John'
'de Klerk, Niek J. J.'
'Ko, Hsin-Yu'
'Kuleshova, Liudmila N.'
'Li, Xiayue'
'Lohani, Sanjaya'
'Leusen, Frank J. J.'
'Lund, Albert M.'
'Lv, Jian'
'Ma, Yanming'
'Marom, Noa'
'Masunov, Art\"em E.'
'McCabe, Patrick'
'McMahon, David P.'
'Meekes, Hugo'
'Metz, Michael P.'
'Misquitta, Alston J.'
'Mohamed, Sharmarke'
'Monserrat, Bartomeu'
'Needs, Richard J.'
'Neumann, Marcus A.'
'Nyman, Jonas'
'Obata, Shigeaki'
'Oberhofer, Harald'
'Oganov, Artem R.'
'Orendt, Anita M.'
'Pagola, Gabriel I.'
'Pantelides, Constantinos C.'
'Pickard, Chris J.'
'Podeszwa, Rafal'
'Price, Louise S.'
'Price, Sarah L.'
'Pulido, Angeles'
'Read, Murray G.'
'Reuter, Karsten'
'Schneider, Elia'
'Schober, Christoph'
'Shields, Gregory P.'
'Singh, Pawanpreet'
'Sugden, Isaac J.'
'Szalewicz, Krzysztof'
'Taylor, Christopher R.'
'Tkatchenko, Alexandre'
'Tuckerman, Mark E.'
'Vacarro, Francesca'
'Vasileiadis, Manolis'
'Vazquez-Mayagoitia, Alvaro'
'Vogt, Leslie'
'Wang, Yanchao'
'Watson, Rona E.'
'de Wijs, Gilles A.'
'Yang, Jack'
'Zhu, Qiang'
'Groom, Colin R.'
_publ_section_title
;
 Report on the sixth blind test of organic crystal structure prediction
 methods
;
_journal_issue                   4
_journal_name_full               'Acta Crystallographica Section B'
_journal_page_first              439
_journal_page_last               459
_journal_paper_doi               10.1107/S2052520616007447
_journal_volume                  72
_journal_year                    2016
_chemical_compound_source        'see text'
_chemical_formula_moiety         'C8 N4 S3'
_chemical_formula_sum            'C8 N4 S3'
_chemical_formula_weight         248.33
_space_group_IT_number           33
_symmetry_cell_setting           orthorhombic
_symmetry_Int_Tables_number      33
_symmetry_space_group_name_Hall  'P 2c -2n'
_symmetry_space_group_name_H-M   'P n a 21'
_atom_sites_solution_hydrogens   ' .'
_atom_sites_solution_primary     ' ?'
_atom_sites_solution_secondary   ' ?'
_cell_angle_alpha                90
_cell_angle_beta                 90
_cell_angle_gamma                90
_cell_formula_units_Z            4
_cell_length_a                   13.09320
_cell_length_b                   10.90050
_cell_length_c                   7.85530
_cell_volume                     1121.127
_computing_publication_material  'PLATON (Spek, 2003)'
_diffrn_radiation_probe          x-ray
_diffrn_radiation_type           MoK\a
_diffrn_radiation_wavelength     0.71073
_diffrn_reflns_reduction_process
;
;
_exptl_absorpt_coefficient_mu    0.630
_exptl_absorpt_correction_type   ' ?'
_exptl_crystal_colour            ' ?'
_exptl_crystal_density_diffrn    1.471
_exptl_crystal_density_method    'Not Measured'
_exptl_crystal_description       ' ?'
_exptl_crystal_F_000             496
_refine_ls_abs_structure_details 'Flack (1983)'
_refine_ls_extinction_method     ' ?'
_refine_ls_hydrogen_treatment    ' .'
_refine_ls_number_restraints     0
_refine_ls_weighting_scheme      ?
_iucr_refine_instructions_details
;
;
_cod_data_source_file            XXII-1_Goto_Obata.cif
_cod_data_source_block           XXII_R058
_cod_struct_determination_method theoretical
_cod_database_code               2107798
loop_
_symmetry_equiv_pos_site_id
_symmetry_equiv_pos_as_xyz
1 x,y,z
2 -x,-y,1/2+z
3 1/2-x,1/2+y,1/2+z
4 1/2+x,1/2-y,z
loop_
_atom_site_label
_atom_site_type_symbol
_atom_site_thermal_displace_type
_atom_site_fract_x
_atom_site_fract_y
_atom_site_fract_z
_atom_site_occupancy
_atom_site_U_iso_or_equiv
S1 S Uiso 0.43821 0.25785 0.34548 1.000 0.0500
S2 S Uiso 0.21734 0.33520 0.55696 1.000 0.0500
S3 S Uiso 0.27760 -0.03352 0.57477 1.000 0.0500
N1 N Uiso 0.21558 0.09613 0.61383 1.000 0.0500
N2 N Uiso 0.53882 0.57132 0.35239 1.000 0.0500
N3 N Uiso 0.29904 0.65609 0.61804 1.000 0.0500
N4 N Uiso 0.53231 -0.08873 0.35387 1.000 0.0500
C1 C Uiso 0.40660 0.40161 0.42714 1.000 0.0500
C2 C Uiso 0.32021 0.43172 0.51145 1.000 0.0500
C3 C Uiso 0.26837 0.18768 0.54353 1.000 0.0500
C4 C Uiso 0.36009 0.15610 0.45744 1.000 0.0500
C5 C Uiso 0.37718 0.03146 0.46944 1.000 0.0500
C6 C Uiso 0.48058 0.49544 0.38960 1.000 0.0500
C7 C Uiso 0.30667 0.55614 0.56820 1.000 0.0500
C8 C Uiso 0.46184 -0.03637 0.40653 1.000 0.0500
loop_
_atom_type_symbol
_atom_type_description
_atom_type_scat_dispersion_real
_atom_type_scat_dispersion_imag
_atom_type_scat_source
C C 0.0033 0.0016 ' International Tables Vol C Tables 4.2.6.8 and 6.1.1.4'
N N 0.0061 0.0033 ' International Tables Vol C Tables 4.2.6.8 and 6.1.1.4'
S S 0.1246 0.1234 ' International Tables Vol C Tables 4.2.6.8 and 6.1.1.4'
loop_
_geom_angle_atom_site_label_1
_geom_angle_atom_site_label_2
_geom_angle_atom_site_label_3
_geom_angle
_geom_angle_publ_flag
C1 S1 C4 104.27 yes
C2 S2 C3 104.34 yes
N1 S3 C5 96.35 yes
S3 N1 C3 107.89 yes
S1 C1 C2 126.69 yes
S1 C1 C6 113.81 yes
C2 C1 C6 119.42 no
S2 C2 C1 126.85 yes
S2 C2 C7 114.18 yes
C1 C2 C7 118.95 no
S2 C3 N1 117.79 yes
S2 C3 C4 125.16 yes
N1 C3 C4 117.00 yes
S1 C4 C3 125.52 yes
S1 C4 C5 124.38 yes
C3 C4 C5 110.07 no
S3 C5 C4 108.62 yes
S3 C5 C8 123.44 yes
C4 C5 C8 127.94 no
N2 C6 C1 177.16 yes
N3 C7 C2 177.35 yes
N4 C8 C5 178.09 yes
loop_
_geom_bond_atom_site_label_1
_geom_bond_atom_site_label_2
_geom_bond_distance
_geom_bond_publ_flag
S1 C1 1.7431 yes
S1 C4 1.7464 yes
S2 C2 1.7461 yes
S2 C3 1.7445 yes
S3 N1 1.6586 yes
S3 C5 1.6989 yes
N1 C3 1.3336 yes
N2 C6 1.1624 yes
N3 C7 1.1620 yes
N4 C8 1.1611 yes
C1 C2 1.3512 no
C1 C6 1.4392 no
C2 C7 1.4386 no
C3 C4 1.4206 no
C4 C5 1.3802 no
C5 C8 1.4211 no
loop_
_geom_torsion_atom_site_label_1
_geom_torsion_atom_site_label_2
_geom_torsion_atom_site_label_3
_geom_torsion_atom_site_label_4
_geom_torsion
_geom_torsion_publ_flag
C1 S1 C4 C5 -161.63 no
C4 S1 C1 C2 -20.01 no
C4 S1 C1 C6 163.28 no
C1 S1 C4 C3 20.88 no
C3 S2 C2 C1 21.24 no
C3 S2 C2 C7 -160.57 no
C2 S2 C3 N1 163.08 no
C2 S2 C3 C4 -19.60 no
C5 S3 N1 C3 1.70 no
N1 S3 C5 C8 177.56 no
N1 S3 C5 C4 -2.64 no
S3 N1 C3 C4 -0.32 no
S3 N1 C3 S2 177.22 no
C6 C1 C2 C7 -2.76 no
S1 C1 C2 C7 -179.29 no
C6 C1 C2 S2 175.36 no
S1 C1 C2 S2 -1.18 no
S2 C3 C4 S1 -1.20 no
S2 C3 C4 C5 -178.99 no
N1 C3 C4 C5 -1.65 no
N1 C3 C4 S1 176.14 no
S1 C4 C5 S3 -175.09 no
C3 C4 C5 C8 -177.48 no
S1 C4 C5 C8 4.69 no
C3 C4 C5 S3 2.73 no
