#------------------------------------------------------------------------------
#$Date: 2023-12-05 10:34:00 +0200 (Tue, 05 Dec 2023) $
#$Revision: 288031 $
#$URL: file:///home/coder/svn-repositories/cod/cif/2/10/78/2107829.cif $
#------------------------------------------------------------------------------
#
# This file is available in the Crystallography Open Database (COD),
# http://www.crystallography.net/. The original data for this entry
# were provided by IUCr Journals, http://journals.iucr.org/.
#
# The file may be used within the scientific community so long as
# proper attribution is given to the journal article from which the
# data were obtained.
#
data_2107829
loop_
_publ_author_name
'Reilly, Anthony M.'
'Cooper, Richard I.'
'Adjiman, Claire S.'
'Bhattacharya, Saswata'
'Boese, A. Daniel'
'Brandenburg, Jan Gerit'
'Bygrave, Peter J.'
'Bylsma, Rita'
'Campbell, Josh E.'
'Car, Roberto'
'Case, David H.'
'Chadha, Renu'
'Cole, Jason C.'
'Cosburn, Katherine'
'Cuppen, Herma M.'
'Curtis, Farren'
'Day, Graeme M.'
'DiStasio Jr, Robert A.'
'Dzyabchenko, Alexander'
'van Eijck, Bouke P.'
'Elking, Dennis M.'
'van den Ende, Joost A.'
'Facelli, Julio C.'
'Ferraro, Marta B.'
'Fusti-Molnar, Laszlo'
'Gatsiou, Christina-Anna'
'Gee, Thomas S.'
'de Gelder, Ren\'e'
'Ghiringhelli, Luca M.'
'Goto, Hitoshi'
'Grimme, Stefan'
'Guo, Rui'
'Hofmann, Detlef W. M.'
'Hoja, Johannes'
'Hylton, Rebecca K.'
'Iuzzolino, Luca'
'Jankiewicz, Wojciech'
'de Jong, Dani\"el T.'
'Kendrick, John'
'de Klerk, Niek J. J.'
'Ko, Hsin-Yu'
'Kuleshova, Liudmila N.'
'Li, Xiayue'
'Lohani, Sanjaya'
'Leusen, Frank J. J.'
'Lund, Albert M.'
'Lv, Jian'
'Ma, Yanming'
'Marom, Noa'
'Masunov, Art\"em E.'
'McCabe, Patrick'
'McMahon, David P.'
'Meekes, Hugo'
'Metz, Michael P.'
'Misquitta, Alston J.'
'Mohamed, Sharmarke'
'Monserrat, Bartomeu'
'Needs, Richard J.'
'Neumann, Marcus A.'
'Nyman, Jonas'
'Obata, Shigeaki'
'Oberhofer, Harald'
'Oganov, Artem R.'
'Orendt, Anita M.'
'Pagola, Gabriel I.'
'Pantelides, Constantinos C.'
'Pickard, Chris J.'
'Podeszwa, Rafal'
'Price, Louise S.'
'Price, Sarah L.'
'Pulido, Angeles'
'Read, Murray G.'
'Reuter, Karsten'
'Schneider, Elia'
'Schober, Christoph'
'Shields, Gregory P.'
'Singh, Pawanpreet'
'Sugden, Isaac J.'
'Szalewicz, Krzysztof'
'Taylor, Christopher R.'
'Tkatchenko, Alexandre'
'Tuckerman, Mark E.'
'Vacarro, Francesca'
'Vasileiadis, Manolis'
'Vazquez-Mayagoitia, Alvaro'
'Vogt, Leslie'
'Wang, Yanchao'
'Watson, Rona E.'
'de Wijs, Gilles A.'
'Yang, Jack'
'Zhu, Qiang'
'Groom, Colin R.'
_publ_section_title
;
 Report on the sixth blind test of organic crystal structure prediction
 methods
;
_journal_issue                   4
_journal_name_full               'Acta Crystallographica Section B'
_journal_page_first              439
_journal_page_last               459
_journal_paper_doi               10.1107/S2052520616007447
_journal_volume                  72
_journal_year                    2016
_chemical_compound_source        'see text'
_chemical_formula_moiety         'C8 N4 S3'
_chemical_formula_sum            'C8 N4 S3'
_chemical_formula_weight         248.33
_space_group_IT_number           7
_symmetry_cell_setting           monoclinic
_symmetry_Int_Tables_number      7
_symmetry_space_group_name_Hall  'P -2yc'
_symmetry_space_group_name_H-M   'P 1 c 1'
_atom_sites_solution_hydrogens   ' .'
_atom_sites_solution_primary     ' ?'
_atom_sites_solution_secondary   ' ?'
_cell_angle_alpha                90
_cell_angle_beta                 112.4990
_cell_angle_gamma                90
_cell_formula_units_Z            2
_cell_length_a                   6.17650
_cell_length_b                   8.90090
_cell_length_c                   11.09710
_cell_volume                     563.643
_computing_publication_material  'PLATON (Spek, 2003)'
_diffrn_radiation_probe          x-ray
_diffrn_radiation_type           MoK\a
_diffrn_radiation_wavelength     0.71073
_diffrn_reflns_reduction_process
;
;
_exptl_absorpt_coefficient_mu    0.627
_exptl_absorpt_correction_type   ' ?'
_exptl_crystal_colour            ' ?'
_exptl_crystal_density_diffrn    1.463
_exptl_crystal_density_method    'Not Measured'
_exptl_crystal_description       ' ?'
_exptl_crystal_F_000             248
_refine_ls_abs_structure_details 'Flack (1983)'
_refine_ls_extinction_method     ' ?'
_refine_ls_hydrogen_treatment    ' .'
_refine_ls_number_restraints     0
_refine_ls_weighting_scheme      ?
_iucr_refine_instructions_details
;
;
_cod_data_source_file            XXII-1_Goto_Obata.cif
_cod_data_source_block           XXII_R089
_cod_original_sg_symbol_H-M      'P c'
_cod_struct_determination_method theoretical
_cod_database_code               2107829
loop_
_symmetry_equiv_pos_site_id
_symmetry_equiv_pos_as_xyz
1 x,y,z
2 x,-y,1/2+z
loop_
_atom_site_label
_atom_site_type_symbol
_atom_site_thermal_displace_type
_atom_site_fract_x
_atom_site_fract_y
_atom_site_fract_z
_atom_site_occupancy
_atom_site_U_iso_or_equiv
S1 S Uiso 1.13467 0.23723 0.59622 1.000 0.0500
S2 S Uiso 0.69533 0.46035 0.60213 1.000 0.0500
S3 S Uiso 1.01954 0.23914 0.94901 1.000 0.0500
N1 N Uiso 0.82984 0.35344 0.84242 1.000 0.0500
N2 N Uiso 0.83689 0.13140 0.25148 1.000 0.0500
N3 N Uiso 0.30394 0.38715 0.26531 1.000 0.0500
N4 N Uiso 1.49823 -0.00750 0.92771 1.000 0.0500
C1 C Uiso 0.86912 0.26990 0.46396 1.000 0.0500
C2 C Uiso 0.69192 0.35653 0.46759 1.000 0.0500
C3 C Uiso 0.86756 0.34786 0.73221 1.000 0.0500
C4 C Uiso 1.05247 0.25413 0.73033 1.000 0.0500
C5 C Uiso 1.15837 0.18416 0.84954 1.000 0.0500
C6 C Uiso 0.84854 0.19577 0.34487 1.000 0.0500
C7 C Uiso 0.47996 0.37240 0.35400 1.000 0.0500
C8 C Uiso 1.34759 0.08016 0.89037 1.000 0.0500
loop_
_atom_type_symbol
_atom_type_description
_atom_type_scat_dispersion_real
_atom_type_scat_dispersion_imag
_atom_type_scat_source
C C 0.0033 0.0016 ' International Tables Vol C Tables 4.2.6.8 and 6.1.1.4'
N N 0.0061 0.0033 ' International Tables Vol C Tables 4.2.6.8 and 6.1.1.4'
S S 0.1246 0.1234 ' International Tables Vol C Tables 4.2.6.8 and 6.1.1.4'
loop_
_geom_angle_atom_site_label_1
_geom_angle_atom_site_label_2
_geom_angle_atom_site_label_3
_geom_angle
_geom_angle_publ_flag
C1 S1 C4 102.35 yes
C2 S2 C3 101.97 yes
N1 S3 C5 96.16 yes
S3 N1 C3 107.97 yes
S1 C1 C2 125.25 yes
S1 C1 C6 114.68 yes
C2 C1 C6 120.07 no
S2 C2 C1 125.54 yes
S2 C2 C7 114.00 yes
C1 C2 C7 120.45 no
S2 C3 N1 118.25 yes
S2 C3 C4 124.33 yes
N1 C3 C4 117.38 yes
S1 C4 C3 123.94 yes
S1 C4 C5 126.17 yes
C3 C4 C5 109.86 no
S3 C5 C4 108.62 yes
S3 C5 C8 122.35 yes
C4 C5 C8 129.02 no
N2 C6 C1 177.40 yes
N3 C7 C2 177.25 yes
N4 C8 C5 176.90 yes
loop_
_geom_bond_atom_site_label_1
_geom_bond_atom_site_label_2
_geom_bond_distance
_geom_bond_publ_flag
S1 C1 1.7568 yes
S1 C4 1.7531 yes
S2 C2 1.7491 yes
S2 C3 1.7443 yes
S3 N1 1.6572 yes
S3 C5 1.7081 yes
N1 C3 1.3306 yes
N2 C6 1.1621 yes
N3 C7 1.1614 yes
N4 C8 1.1624 yes
C1 C2 1.3520 no
C1 C6 1.4386 no
C2 C7 1.4352 no
C3 C4 1.4209 no
C4 C5 1.3797 no
C5 C8 1.4223 no
loop_
_geom_torsion_atom_site_label_1
_geom_torsion_atom_site_label_2
_geom_torsion_atom_site_label_3
_geom_torsion_atom_site_label_4
_geom_torsion
_geom_torsion_publ_flag
C1 S1 C4 C5 152.27 no
C4 S1 C1 C2 28.90 no
C4 S1 C1 C6 -151.14 no
C1 S1 C4 C3 -29.83 no
C3 S2 C2 C1 -33.00 no
C3 S2 C2 C7 148.43 no
C2 S2 C3 N1 -151.45 no
C2 S2 C3 C4 30.99 no
C5 S3 N1 C3 1.25 no
N1 S3 C5 C8 -179.82 no
N1 S3 C5 C4 -1.03 no
S3 N1 C3 C4 -1.18 no
S3 N1 C3 S2 -178.91 no
C6 C1 C2 C7 1.54 no
S1 C1 C2 C7 -178.51 no
C6 C1 C2 S2 -176.96 no
S1 C1 C2 S2 3.00 no
S2 C3 C4 S1 -0.18 no
S2 C3 C4 C5 178.02 no
N1 C3 C4 C5 0.44 no
N1 C3 C4 S1 -177.76 no
S1 C4 C5 S3 178.66 no
C3 C4 C5 C8 179.19 no
S1 C4 C5 C8 -2.66 no
C3 C4 C5 S3 0.51 no
