#------------------------------------------------------------------------------
#$Date: 2023-12-05 10:34:00 +0200 (Tue, 05 Dec 2023) $
#$Revision: 288031 $
#$URL: file:///home/coder/svn-repositories/cod/cif/2/10/77/2107764.cif $
#------------------------------------------------------------------------------
#
# This file is available in the Crystallography Open Database (COD),
# http://www.crystallography.net/. The original data for this entry
# were provided by IUCr Journals, http://journals.iucr.org/.
#
# The file may be used within the scientific community so long as
# proper attribution is given to the journal article from which the
# data were obtained.
#
data_2107764
loop_
_publ_author_name
'Reilly, Anthony M.'
'Cooper, Richard I.'
'Adjiman, Claire S.'
'Bhattacharya, Saswata'
'Boese, A. Daniel'
'Brandenburg, Jan Gerit'
'Bygrave, Peter J.'
'Bylsma, Rita'
'Campbell, Josh E.'
'Car, Roberto'
'Case, David H.'
'Chadha, Renu'
'Cole, Jason C.'
'Cosburn, Katherine'
'Cuppen, Herma M.'
'Curtis, Farren'
'Day, Graeme M.'
'DiStasio Jr, Robert A.'
'Dzyabchenko, Alexander'
'van Eijck, Bouke P.'
'Elking, Dennis M.'
'van den Ende, Joost A.'
'Facelli, Julio C.'
'Ferraro, Marta B.'
'Fusti-Molnar, Laszlo'
'Gatsiou, Christina-Anna'
'Gee, Thomas S.'
'de Gelder, Ren\'e'
'Ghiringhelli, Luca M.'
'Goto, Hitoshi'
'Grimme, Stefan'
'Guo, Rui'
'Hofmann, Detlef W. M.'
'Hoja, Johannes'
'Hylton, Rebecca K.'
'Iuzzolino, Luca'
'Jankiewicz, Wojciech'
'de Jong, Dani\"el T.'
'Kendrick, John'
'de Klerk, Niek J. J.'
'Ko, Hsin-Yu'
'Kuleshova, Liudmila N.'
'Li, Xiayue'
'Lohani, Sanjaya'
'Leusen, Frank J. J.'
'Lund, Albert M.'
'Lv, Jian'
'Ma, Yanming'
'Marom, Noa'
'Masunov, Art\"em E.'
'McCabe, Patrick'
'McMahon, David P.'
'Meekes, Hugo'
'Metz, Michael P.'
'Misquitta, Alston J.'
'Mohamed, Sharmarke'
'Monserrat, Bartomeu'
'Needs, Richard J.'
'Neumann, Marcus A.'
'Nyman, Jonas'
'Obata, Shigeaki'
'Oberhofer, Harald'
'Oganov, Artem R.'
'Orendt, Anita M.'
'Pagola, Gabriel I.'
'Pantelides, Constantinos C.'
'Pickard, Chris J.'
'Podeszwa, Rafal'
'Price, Louise S.'
'Price, Sarah L.'
'Pulido, Angeles'
'Read, Murray G.'
'Reuter, Karsten'
'Schneider, Elia'
'Schober, Christoph'
'Shields, Gregory P.'
'Singh, Pawanpreet'
'Sugden, Isaac J.'
'Szalewicz, Krzysztof'
'Taylor, Christopher R.'
'Tkatchenko, Alexandre'
'Tuckerman, Mark E.'
'Vacarro, Francesca'
'Vasileiadis, Manolis'
'Vazquez-Mayagoitia, Alvaro'
'Vogt, Leslie'
'Wang, Yanchao'
'Watson, Rona E.'
'de Wijs, Gilles A.'
'Yang, Jack'
'Zhu, Qiang'
'Groom, Colin R.'
_publ_section_title
;
 Report on the sixth blind test of organic crystal structure prediction
 methods
;
_journal_issue                   4
_journal_name_full               'Acta Crystallographica Section B'
_journal_page_first              439
_journal_page_last               459
_journal_paper_doi               10.1107/S2052520616007447
_journal_volume                  72
_journal_year                    2016
_chemical_compound_source        'see text'
_chemical_formula_moiety         'C8 N4 S3'
_chemical_formula_sum            'C8 N4 S3'
_chemical_formula_weight         248.33
_space_group_IT_number           29
_symmetry_cell_setting           orthorhombic
_symmetry_Int_Tables_number      29
_symmetry_space_group_name_Hall  'P 2c -2ac'
_symmetry_space_group_name_H-M   'P c a 21'
_atom_sites_solution_hydrogens   ' .'
_atom_sites_solution_primary     ' ?'
_atom_sites_solution_secondary   ' ?'
_cell_angle_alpha                90
_cell_angle_beta                 90
_cell_angle_gamma                90
_cell_formula_units_Z            4
_cell_length_a                   14.12740
_cell_length_b                   10.03020
_cell_length_c                   7.69000
_cell_volume                     1089.678
_computing_publication_material  'PLATON (Spek, 2003)'
_diffrn_radiation_probe          x-ray
_diffrn_radiation_type           MoK\a
_diffrn_radiation_wavelength     0.71073
_diffrn_reflns_reduction_process
;
;
_exptl_absorpt_coefficient_mu    0.648
_exptl_absorpt_correction_type   ' ?'
_exptl_crystal_colour            ' ?'
_exptl_crystal_density_diffrn    1.514
_exptl_crystal_density_method    'Not Measured'
_exptl_crystal_description       ' ?'
_exptl_crystal_F_000             496
_refine_ls_abs_structure_details 'Flack (1983)'
_refine_ls_extinction_method     ' ?'
_refine_ls_hydrogen_treatment    ' .'
_refine_ls_number_restraints     0
_refine_ls_weighting_scheme      ?
_iucr_refine_instructions_details
;
;
_cod_data_source_file            XXII-1_Goto_Obata.cif
_cod_data_source_block           XXII_R024
_cod_struct_determination_method theoretical
_cod_database_code               2107764
loop_
_symmetry_equiv_pos_site_id
_symmetry_equiv_pos_as_xyz
1 x,y,z
2 -x,-y,1/2+z
3 1/2-x,y,1/2+z
4 1/2+x,-y,z
loop_
_atom_site_label
_atom_site_type_symbol
_atom_site_thermal_displace_type
_atom_site_fract_x
_atom_site_fract_y
_atom_site_fract_z
_atom_site_occupancy
_atom_site_U_iso_or_equiv
S1 S Uiso 0.02508 0.18232 0.66484 1.000 0.0500
S2 S Uiso 0.24425 0.30748 0.60004 1.000 0.0500
S3 S Uiso 0.24089 -0.10085 0.56768 1.000 0.0500
N1 N Uiso 0.28630 0.05135 0.55825 1.000 0.0500
N2 N Uiso -0.09213 0.46622 0.43605 1.000 0.0500
N3 N Uiso 0.15413 0.61462 0.38491 1.000 0.0500
N4 N Uiso -0.00818 -0.21655 0.68037 1.000 0.0500
C1 C Uiso 0.05096 0.33323 0.55987 1.000 0.0500
C2 C Uiso 0.13879 0.38336 0.53496 1.000 0.0500
C3 C Uiso 0.21683 0.13806 0.58797 1.000 0.0500
C4 C Uiso 0.12494 0.08524 0.61737 1.000 0.0500
C5 C Uiso 0.12772 -0.05218 0.61239 1.000 0.0500
C6 C Uiso -0.02977 0.40625 0.49627 1.000 0.0500
C7 C Uiso 0.14971 0.51091 0.45191 1.000 0.0500
C8 C Uiso 0.05257 -0.14325 0.64504 1.000 0.0500
loop_
_atom_type_symbol
_atom_type_description
_atom_type_scat_dispersion_real
_atom_type_scat_dispersion_imag
_atom_type_scat_source
C C 0.0033 0.0016 ' International Tables Vol C Tables 4.2.6.8 and 6.1.1.4'
N N 0.0061 0.0033 ' International Tables Vol C Tables 4.2.6.8 and 6.1.1.4'
S S 0.1246 0.1234 ' International Tables Vol C Tables 4.2.6.8 and 6.1.1.4'
loop_
_geom_angle_atom_site_label_1
_geom_angle_atom_site_label_2
_geom_angle_atom_site_label_3
_geom_angle
_geom_angle_publ_flag
C1 S1 C4 102.46 yes
C2 S2 C3 102.69 yes
N1 S3 C5 96.20 yes
S3 N1 C3 107.99 yes
S1 C1 C2 125.26 yes
S1 C1 C6 115.46 yes
C2 C1 C6 119.28 no
S2 C2 C1 125.46 yes
S2 C2 C7 115.05 yes
C1 C2 C7 119.47 no
S2 C3 N1 118.79 yes
S2 C3 C4 123.89 yes
N1 C3 C4 117.23 yes
S1 C4 C3 124.17 yes
S1 C4 C5 125.72 yes
C3 C4 C5 110.02 no
S3 C5 C4 108.55 yes
S3 C5 C8 123.43 yes
C4 C5 C8 127.98 no
N2 C6 C1 176.08 yes
N3 C7 C2 176.92 yes
N4 C8 C5 176.64 yes
loop_
_geom_bond_atom_site_label_1
_geom_bond_atom_site_label_2
_geom_bond_distance
_geom_bond_publ_flag
S1 C1 1.7540 yes
S1 C4 1.7526 yes
S2 C2 1.7463 yes
S2 C3 1.7454 yes
S3 N1 1.6575 yes
S3 C5 1.7067 yes
N1 C3 1.3311 yes
N2 C6 1.1629 yes
N3 C7 1.1625 yes
N4 C8 1.1623 yes
C1 C2 1.3525 no
C1 C6 1.4410 no
C2 C7 1.4382 no
C3 C4 1.4202 no
C4 C5 1.3794 no
C5 C8 1.4229 no
loop_
_geom_torsion_atom_site_label_1
_geom_torsion_atom_site_label_2
_geom_torsion_atom_site_label_3
_geom_torsion_atom_site_label_4
_geom_torsion
_geom_torsion_publ_flag
C1 S1 C4 C5 -154.85 no
C4 S1 C1 C2 -30.64 no
C4 S1 C1 C6 149.04 no
C1 S1 C4 C3 28.95 no
C3 S2 C2 C1 30.38 no
C3 S2 C2 C7 -151.03 no
C2 S2 C3 N1 152.56 no
C2 S2 C3 C4 -31.00 no
C5 S3 N1 C3 -0.19 no
N1 S3 C5 C8 -176.70 no
N1 S3 C5 C4 0.95 no
S3 N1 C3 C4 -0.65 no
S3 N1 C3 S2 176.03 no
C6 C1 C2 C7 2.50 no
S1 C1 C2 C7 -177.83 no
C6 C1 C2 S2 -178.96 no
S1 C1 C2 S2 0.70 no
S2 C3 C4 S1 1.61 no
S2 C3 C4 C5 -175.11 no
N1 C3 C4 C5 1.38 no
N1 C3 C4 S1 178.10 no
S1 C4 C5 S3 -178.04 no
C3 C4 C5 C8 176.13 no
S1 C4 C5 C8 -0.53 no
C3 C4 C5 S3 -1.38 no
