#------------------------------------------------------------------------------
#$Date: 2023-12-05 10:34:00 +0200 (Tue, 05 Dec 2023) $
#$Revision: 288031 $
#$URL: file:///home/coder/svn-repositories/cod/cif/2/10/77/2107778.cif $
#------------------------------------------------------------------------------
#
# This file is available in the Crystallography Open Database (COD),
# http://www.crystallography.net/. The original data for this entry
# were provided by IUCr Journals, http://journals.iucr.org/.
#
# The file may be used within the scientific community so long as
# proper attribution is given to the journal article from which the
# data were obtained.
#
data_2107778
loop_
_publ_author_name
'Reilly, Anthony M.'
'Cooper, Richard I.'
'Adjiman, Claire S.'
'Bhattacharya, Saswata'
'Boese, A. Daniel'
'Brandenburg, Jan Gerit'
'Bygrave, Peter J.'
'Bylsma, Rita'
'Campbell, Josh E.'
'Car, Roberto'
'Case, David H.'
'Chadha, Renu'
'Cole, Jason C.'
'Cosburn, Katherine'
'Cuppen, Herma M.'
'Curtis, Farren'
'Day, Graeme M.'
'DiStasio Jr, Robert A.'
'Dzyabchenko, Alexander'
'van Eijck, Bouke P.'
'Elking, Dennis M.'
'van den Ende, Joost A.'
'Facelli, Julio C.'
'Ferraro, Marta B.'
'Fusti-Molnar, Laszlo'
'Gatsiou, Christina-Anna'
'Gee, Thomas S.'
'de Gelder, Ren\'e'
'Ghiringhelli, Luca M.'
'Goto, Hitoshi'
'Grimme, Stefan'
'Guo, Rui'
'Hofmann, Detlef W. M.'
'Hoja, Johannes'
'Hylton, Rebecca K.'
'Iuzzolino, Luca'
'Jankiewicz, Wojciech'
'de Jong, Dani\"el T.'
'Kendrick, John'
'de Klerk, Niek J. J.'
'Ko, Hsin-Yu'
'Kuleshova, Liudmila N.'
'Li, Xiayue'
'Lohani, Sanjaya'
'Leusen, Frank J. J.'
'Lund, Albert M.'
'Lv, Jian'
'Ma, Yanming'
'Marom, Noa'
'Masunov, Art\"em E.'
'McCabe, Patrick'
'McMahon, David P.'
'Meekes, Hugo'
'Metz, Michael P.'
'Misquitta, Alston J.'
'Mohamed, Sharmarke'
'Monserrat, Bartomeu'
'Needs, Richard J.'
'Neumann, Marcus A.'
'Nyman, Jonas'
'Obata, Shigeaki'
'Oberhofer, Harald'
'Oganov, Artem R.'
'Orendt, Anita M.'
'Pagola, Gabriel I.'
'Pantelides, Constantinos C.'
'Pickard, Chris J.'
'Podeszwa, Rafal'
'Price, Louise S.'
'Price, Sarah L.'
'Pulido, Angeles'
'Read, Murray G.'
'Reuter, Karsten'
'Schneider, Elia'
'Schober, Christoph'
'Shields, Gregory P.'
'Singh, Pawanpreet'
'Sugden, Isaac J.'
'Szalewicz, Krzysztof'
'Taylor, Christopher R.'
'Tkatchenko, Alexandre'
'Tuckerman, Mark E.'
'Vacarro, Francesca'
'Vasileiadis, Manolis'
'Vazquez-Mayagoitia, Alvaro'
'Vogt, Leslie'
'Wang, Yanchao'
'Watson, Rona E.'
'de Wijs, Gilles A.'
'Yang, Jack'
'Zhu, Qiang'
'Groom, Colin R.'
_publ_section_title
;
 Report on the sixth blind test of organic crystal structure prediction
 methods
;
_journal_issue                   4
_journal_name_full               'Acta Crystallographica Section B'
_journal_page_first              439
_journal_page_last               459
_journal_paper_doi               10.1107/S2052520616007447
_journal_volume                  72
_journal_year                    2016
_chemical_compound_source        'see text'
_chemical_formula_moiety         'C8 N4 S3'
_chemical_formula_sum            'C8 N4 S3'
_chemical_formula_weight         248.33
_space_group_IT_number           33
_symmetry_cell_setting           orthorhombic
_symmetry_Int_Tables_number      33
_symmetry_space_group_name_Hall  'P 2c -2n'
_symmetry_space_group_name_H-M   'P n a 21'
_atom_sites_solution_hydrogens   ' .'
_atom_sites_solution_primary     ' ?'
_atom_sites_solution_secondary   ' ?'
_cell_angle_alpha                90
_cell_angle_beta                 90
_cell_angle_gamma                90
_cell_formula_units_Z            4
_cell_length_a                   22.81970
_cell_length_b                   7.13080
_cell_length_c                   7.04300
_cell_volume                     1146.056
_computing_publication_material  'PLATON (Spek, 2003)'
_diffrn_radiation_probe          x-ray
_diffrn_radiation_type           MoK\a
_diffrn_radiation_wavelength     0.71073
_diffrn_reflns_reduction_process
;
;
_exptl_absorpt_coefficient_mu    0.617
_exptl_absorpt_correction_type   ' ?'
_exptl_crystal_colour            ' ?'
_exptl_crystal_density_diffrn    1.439
_exptl_crystal_density_method    'Not Measured'
_exptl_crystal_description       ' ?'
_exptl_crystal_F_000             496
_refine_ls_abs_structure_details 'Flack (1983)'
_refine_ls_extinction_method     ' ?'
_refine_ls_hydrogen_treatment    ' .'
_refine_ls_number_restraints     0
_refine_ls_weighting_scheme      ?
_iucr_refine_instructions_details
;
;
_cod_data_source_file            XXII-1_Goto_Obata.cif
_cod_data_source_block           XXII_R038
_cod_struct_determination_method theoretical
_cod_database_code               2107778
loop_
_symmetry_equiv_pos_site_id
_symmetry_equiv_pos_as_xyz
1 x,y,z
2 -x,-y,1/2+z
3 1/2-x,1/2+y,1/2+z
4 1/2+x,1/2-y,z
loop_
_atom_site_label
_atom_site_type_symbol
_atom_site_thermal_displace_type
_atom_site_fract_x
_atom_site_fract_y
_atom_site_fract_z
_atom_site_occupancy
_atom_site_U_iso_or_equiv
S1 S Uiso 0.09855 0.22137 0.69474 1.000 0.0500
S2 S Uiso 0.14571 0.25302 1.14461 1.000 0.0500
S3 S Uiso -0.03411 0.28203 1.10839 1.000 0.0500
N1 N Uiso 0.03091 0.27943 1.21415 1.000 0.0500
N2 N Uiso 0.19718 -0.16383 0.56085 1.000 0.0500
N3 N Uiso 0.25359 -0.13742 1.09078 1.000 0.0500
N4 N Uiso -0.07637 0.22294 0.58988 1.000 0.0500
C1 C Uiso 0.15486 0.08457 0.79310 1.000 0.0500
C2 C Uiso 0.17371 0.09611 0.97483 1.000 0.0500
C3 C Uiso 0.07156 0.25943 1.08002 1.000 0.0500
C4 C Uiso 0.05151 0.24467 0.88942 1.000 0.0500
C5 C Uiso -0.00880 0.25327 0.88276 1.000 0.0500
C6 C Uiso 0.18008 -0.04981 0.66489 1.000 0.0500
C7 C Uiso 0.21874 -0.02906 1.04100 1.000 0.0500
C8 C Uiso -0.04608 0.23949 0.72143 1.000 0.0500
loop_
_atom_type_symbol
_atom_type_description
_atom_type_scat_dispersion_real
_atom_type_scat_dispersion_imag
_atom_type_scat_source
C C 0.0033 0.0016 ' International Tables Vol C Tables 4.2.6.8 and 6.1.1.4'
N N 0.0061 0.0033 ' International Tables Vol C Tables 4.2.6.8 and 6.1.1.4'
S S 0.1246 0.1234 ' International Tables Vol C Tables 4.2.6.8 and 6.1.1.4'
loop_
_geom_angle_atom_site_label_1
_geom_angle_atom_site_label_2
_geom_angle_atom_site_label_3
_geom_angle
_geom_angle_publ_flag
C1 S1 C4 101.11 yes
C2 S2 C3 101.01 yes
N1 S3 C5 96.56 yes
S3 N1 C3 107.79 yes
S1 C1 C2 124.91 yes
S1 C1 C6 114.56 yes
C2 C1 C6 120.52 no
S2 C2 C1 124.52 yes
S2 C2 C7 115.73 yes
C1 C2 C7 119.73 no
S2 C3 N1 119.42 yes
S2 C3 C4 123.62 yes
N1 C3 C4 116.97 yes
S1 C4 C3 123.33 yes
S1 C4 C5 126.17 yes
C3 C4 C5 110.49 no
S3 C5 C4 108.19 yes
S3 C5 C8 123.41 yes
C4 C5 C8 128.39 no
N2 C6 C1 175.84 yes
N3 C7 C2 176.67 yes
N4 C8 C5 178.13 yes
loop_
_geom_bond_atom_site_label_1
_geom_bond_atom_site_label_2
_geom_bond_distance
_geom_bond_publ_flag
S1 C1 1.7557 yes
S1 C4 1.7492 yes
S2 C2 1.7578 yes
S2 C3 1.7528 yes
S3 N1 1.6603 yes
S3 C5 1.7032 yes
N1 C3 1.3316 yes
N2 C6 1.1620 yes
N3 C7 1.1629 yes
N4 C8 1.1619 yes
C1 C2 1.3528 no
C1 C6 1.4369 no
C2 C7 1.4387 no
C3 C4 1.4221 no
C4 C5 1.3784 no
C5 C8 1.4228 no
loop_
_geom_torsion_atom_site_label_1
_geom_torsion_atom_site_label_2
_geom_torsion_atom_site_label_3
_geom_torsion_atom_site_label_4
_geom_torsion
_geom_torsion_publ_flag
C1 S1 C4 C5 -145.80 no
C4 S1 C1 C2 -34.59 no
C4 S1 C1 C6 143.95 no
C1 S1 C4 C3 34.87 no
C3 S2 C2 C1 35.41 no
C3 S2 C2 C7 -143.07 no
C2 S2 C3 N1 146.16 no
C2 S2 C3 C4 -33.96 no
C5 S3 N1 C3 0.78 no
N1 S3 C5 C8 178.36 no
N1 S3 C5 C4 -1.03 no
S3 N1 C3 C4 -0.34 no
S3 N1 C3 S2 179.55 no
C6 C1 C2 C7 -0.94 no
S1 C1 C2 C7 177.52 no
C6 C1 C2 S2 -179.37 no
S1 C1 C2 S2 -0.90 no
S2 C3 C4 S1 -0.89 no
S2 C3 C4 C5 179.69 no
N1 C3 C4 C5 -0.42 no
N1 C3 C4 S1 178.99 no
S1 C4 C5 S3 -178.44 no
C3 C4 C5 C8 -178.40 no
S1 C4 C5 C8 2.21 no
C3 C4 C5 S3 0.95 no
