#------------------------------------------------------------------------------
#$Date: 2023-12-05 10:34:00 +0200 (Tue, 05 Dec 2023) $
#$Revision: 288031 $
#$URL: file:///home/coder/svn-repositories/cod/cif/2/10/77/2107791.cif $
#------------------------------------------------------------------------------
#
# This file is available in the Crystallography Open Database (COD),
# http://www.crystallography.net/. The original data for this entry
# were provided by IUCr Journals, http://journals.iucr.org/.
#
# The file may be used within the scientific community so long as
# proper attribution is given to the journal article from which the
# data were obtained.
#
data_2107791
loop_
_publ_author_name
'Reilly, Anthony M.'
'Cooper, Richard I.'
'Adjiman, Claire S.'
'Bhattacharya, Saswata'
'Boese, A. Daniel'
'Brandenburg, Jan Gerit'
'Bygrave, Peter J.'
'Bylsma, Rita'
'Campbell, Josh E.'
'Car, Roberto'
'Case, David H.'
'Chadha, Renu'
'Cole, Jason C.'
'Cosburn, Katherine'
'Cuppen, Herma M.'
'Curtis, Farren'
'Day, Graeme M.'
'DiStasio Jr, Robert A.'
'Dzyabchenko, Alexander'
'van Eijck, Bouke P.'
'Elking, Dennis M.'
'van den Ende, Joost A.'
'Facelli, Julio C.'
'Ferraro, Marta B.'
'Fusti-Molnar, Laszlo'
'Gatsiou, Christina-Anna'
'Gee, Thomas S.'
'de Gelder, Ren\'e'
'Ghiringhelli, Luca M.'
'Goto, Hitoshi'
'Grimme, Stefan'
'Guo, Rui'
'Hofmann, Detlef W. M.'
'Hoja, Johannes'
'Hylton, Rebecca K.'
'Iuzzolino, Luca'
'Jankiewicz, Wojciech'
'de Jong, Dani\"el T.'
'Kendrick, John'
'de Klerk, Niek J. J.'
'Ko, Hsin-Yu'
'Kuleshova, Liudmila N.'
'Li, Xiayue'
'Lohani, Sanjaya'
'Leusen, Frank J. J.'
'Lund, Albert M.'
'Lv, Jian'
'Ma, Yanming'
'Marom, Noa'
'Masunov, Art\"em E.'
'McCabe, Patrick'
'McMahon, David P.'
'Meekes, Hugo'
'Metz, Michael P.'
'Misquitta, Alston J.'
'Mohamed, Sharmarke'
'Monserrat, Bartomeu'
'Needs, Richard J.'
'Neumann, Marcus A.'
'Nyman, Jonas'
'Obata, Shigeaki'
'Oberhofer, Harald'
'Oganov, Artem R.'
'Orendt, Anita M.'
'Pagola, Gabriel I.'
'Pantelides, Constantinos C.'
'Pickard, Chris J.'
'Podeszwa, Rafal'
'Price, Louise S.'
'Price, Sarah L.'
'Pulido, Angeles'
'Read, Murray G.'
'Reuter, Karsten'
'Schneider, Elia'
'Schober, Christoph'
'Shields, Gregory P.'
'Singh, Pawanpreet'
'Sugden, Isaac J.'
'Szalewicz, Krzysztof'
'Taylor, Christopher R.'
'Tkatchenko, Alexandre'
'Tuckerman, Mark E.'
'Vacarro, Francesca'
'Vasileiadis, Manolis'
'Vazquez-Mayagoitia, Alvaro'
'Vogt, Leslie'
'Wang, Yanchao'
'Watson, Rona E.'
'de Wijs, Gilles A.'
'Yang, Jack'
'Zhu, Qiang'
'Groom, Colin R.'
_publ_section_title
;
 Report on the sixth blind test of organic crystal structure prediction
 methods
;
_journal_issue                   4
_journal_name_full               'Acta Crystallographica Section B'
_journal_page_first              439
_journal_page_last               459
_journal_paper_doi               10.1107/S2052520616007447
_journal_volume                  72
_journal_year                    2016
_chemical_compound_source        'see text'
_chemical_formula_moiety         'C8 N4 S3'
_chemical_formula_sum            'C8 N4 S3'
_chemical_formula_weight         248.33
_space_group_IT_number           33
_symmetry_cell_setting           orthorhombic
_symmetry_Int_Tables_number      33
_symmetry_space_group_name_Hall  'P 2c -2n'
_symmetry_space_group_name_H-M   'P n a 21'
_atom_sites_solution_hydrogens   ' .'
_atom_sites_solution_primary     ' ?'
_atom_sites_solution_secondary   ' ?'
_cell_angle_alpha                90
_cell_angle_beta                 90
_cell_angle_gamma                90
_cell_formula_units_Z            4
_cell_length_a                   20.60960
_cell_length_b                   8.43270
_cell_length_c                   6.48690
_cell_volume                     1127.388
_computing_publication_material  'PLATON (Spek, 2003)'
_diffrn_radiation_probe          x-ray
_diffrn_radiation_type           MoK\a
_diffrn_radiation_wavelength     0.71073
_diffrn_reflns_reduction_process
;
;
_exptl_absorpt_coefficient_mu    0.627
_exptl_absorpt_correction_type   ' ?'
_exptl_crystal_colour            ' ?'
_exptl_crystal_density_diffrn    1.463
_exptl_crystal_density_method    'Not Measured'
_exptl_crystal_description       ' ?'
_exptl_crystal_F_000             496
_refine_ls_abs_structure_details 'Flack (1983)'
_refine_ls_extinction_method     ' ?'
_refine_ls_hydrogen_treatment    ' .'
_refine_ls_number_restraints     0
_refine_ls_weighting_scheme      ?
_iucr_refine_instructions_details
;
;
_cod_data_source_file            XXII-1_Goto_Obata.cif
_cod_data_source_block           XXII_R051
_cod_struct_determination_method theoretical
_cod_database_code               2107791
loop_
_symmetry_equiv_pos_site_id
_symmetry_equiv_pos_as_xyz
1 x,y,z
2 -x,-y,1/2+z
3 1/2-x,1/2+y,1/2+z
4 1/2+x,1/2-y,z
loop_
_atom_site_label
_atom_site_type_symbol
_atom_site_thermal_displace_type
_atom_site_fract_x
_atom_site_fract_y
_atom_site_fract_z
_atom_site_occupancy
_atom_site_U_iso_or_equiv
S1 S Uiso 0.10870 0.45329 0.75762 1.000 0.0500
S2 S Uiso 0.20935 0.45583 0.34548 1.000 0.0500
S3 S Uiso 0.06658 0.79390 0.29790 1.000 0.0500
N1 N Uiso 0.12984 0.68580 0.22488 1.000 0.0500
N2 N Uiso 0.10653 0.01785 0.80215 1.000 0.0500
N3 N Uiso 0.22655 0.01835 0.33638 1.000 0.0500
N4 N Uiso -0.03894 0.76079 0.78127 1.000 0.0500
C1 C Uiso 0.14329 0.28547 0.64210 1.000 0.0500
C2 C Uiso 0.18356 0.28662 0.47754 1.000 0.0500
C3 C Uiso 0.14278 0.58230 0.37387 1.000 0.0500
C4 C Uiso 0.10102 0.58274 0.54802 1.000 0.0500
C5 C Uiso 0.05468 0.69971 0.52784 1.000 0.0500
C6 C Uiso 0.12433 0.13734 0.73322 1.000 0.0500
C7 C Uiso 0.20814 0.13975 0.39760 1.000 0.0500
C8 C Uiso 0.00378 0.73765 0.66804 1.000 0.0500
loop_
_atom_type_symbol
_atom_type_description
_atom_type_scat_dispersion_real
_atom_type_scat_dispersion_imag
_atom_type_scat_source
C C 0.0033 0.0016 ' International Tables Vol C Tables 4.2.6.8 and 6.1.1.4'
N N 0.0061 0.0033 ' International Tables Vol C Tables 4.2.6.8 and 6.1.1.4'
S S 0.1246 0.1234 ' International Tables Vol C Tables 4.2.6.8 and 6.1.1.4'
loop_
_geom_angle_atom_site_label_1
_geom_angle_atom_site_label_2
_geom_angle_atom_site_label_3
_geom_angle
_geom_angle_publ_flag
C1 S1 C4 102.01 yes
C2 S2 C3 102.00 yes
N1 S3 C5 96.12 yes
S3 N1 C3 108.10 yes
S1 C1 C2 125.54 yes
S1 C1 C6 114.56 yes
C2 C1 C6 119.88 no
S2 C2 C1 125.43 yes
S2 C2 C7 114.85 yes
C1 C2 C7 119.72 no
S2 C3 N1 118.79 yes
S2 C3 C4 124.14 yes
N1 C3 C4 117.07 yes
S1 C4 C3 124.15 yes
S1 C4 C5 125.61 yes
C3 C4 C5 110.24 no
S3 C5 C4 108.43 yes
S3 C5 C8 123.98 yes
C4 C5 C8 127.58 no
N2 C6 C1 177.06 yes
N3 C7 C2 177.85 yes
N4 C8 C5 176.51 yes
loop_
_geom_bond_atom_site_label_1
_geom_bond_atom_site_label_2
_geom_bond_distance
_geom_bond_publ_flag
S1 C1 1.7528 yes
S1 C4 1.7508 yes
S2 C2 1.7471 yes
S2 C3 1.7475 yes
S3 N1 1.6599 yes
S3 C5 1.7076 yes
N1 C3 1.3293 yes
N2 C6 1.1618 yes
N3 C7 1.1618 yes
N4 C8 1.1631 yes
C1 C2 1.3522 no
C1 C6 1.4361 no
C2 C7 1.4351 no
C3 C4 1.4202 no
C4 C5 1.3792 no
C5 C8 1.4248 no
loop_
_geom_torsion_atom_site_label_1
_geom_torsion_atom_site_label_2
_geom_torsion_atom_site_label_3
_geom_torsion_atom_site_label_4
_geom_torsion
_geom_torsion_publ_flag
C1 S1 C4 C5 151.26 no
C4 S1 C1 C2 30.88 no
C4 S1 C1 C6 -147.57 no
C1 S1 C4 C3 -29.36 no
C3 S2 C2 C1 -31.27 no
C3 S2 C2 C7 148.23 no
C2 S2 C3 N1 -148.59 no
C2 S2 C3 C4 31.68 no
C5 S3 N1 C3 -1.35 no
N1 S3 C5 C8 -178.44 no
N1 S3 C5 C4 0.30 no
S3 N1 C3 C4 2.12 no
S3 N1 C3 S2 -177.63 no
C6 C1 C2 C7 -1.26 no
S1 C1 C2 C7 -179.62 no
C6 C1 C2 S2 178.22 no
S1 C1 C2 S2 -0.15 no
S2 C3 C4 S1 -1.68 no
S2 C3 C4 C5 177.78 no
N1 C3 C4 C5 -1.96 no
N1 C3 C4 S1 178.58 no
S1 C4 C5 S3 -179.76 no
C3 C4 C5 C8 179.47 no
S1 C4 C5 C8 -1.09 no
C3 C4 C5 S3 0.79 no
