#------------------------------------------------------------------------------
#$Date: 2023-12-05 10:34:00 +0200 (Tue, 05 Dec 2023) $
#$Revision: 288031 $
#$URL: file:///home/coder/svn-repositories/cod/cif/2/10/78/2107811.cif $
#------------------------------------------------------------------------------
#
# This file is available in the Crystallography Open Database (COD),
# http://www.crystallography.net/. The original data for this entry
# were provided by IUCr Journals, http://journals.iucr.org/.
#
# The file may be used within the scientific community so long as
# proper attribution is given to the journal article from which the
# data were obtained.
#
data_2107811
loop_
_publ_author_name
'Reilly, Anthony M.'
'Cooper, Richard I.'
'Adjiman, Claire S.'
'Bhattacharya, Saswata'
'Boese, A. Daniel'
'Brandenburg, Jan Gerit'
'Bygrave, Peter J.'
'Bylsma, Rita'
'Campbell, Josh E.'
'Car, Roberto'
'Case, David H.'
'Chadha, Renu'
'Cole, Jason C.'
'Cosburn, Katherine'
'Cuppen, Herma M.'
'Curtis, Farren'
'Day, Graeme M.'
'DiStasio Jr, Robert A.'
'Dzyabchenko, Alexander'
'van Eijck, Bouke P.'
'Elking, Dennis M.'
'van den Ende, Joost A.'
'Facelli, Julio C.'
'Ferraro, Marta B.'
'Fusti-Molnar, Laszlo'
'Gatsiou, Christina-Anna'
'Gee, Thomas S.'
'de Gelder, Ren\'e'
'Ghiringhelli, Luca M.'
'Goto, Hitoshi'
'Grimme, Stefan'
'Guo, Rui'
'Hofmann, Detlef W. M.'
'Hoja, Johannes'
'Hylton, Rebecca K.'
'Iuzzolino, Luca'
'Jankiewicz, Wojciech'
'de Jong, Dani\"el T.'
'Kendrick, John'
'de Klerk, Niek J. J.'
'Ko, Hsin-Yu'
'Kuleshova, Liudmila N.'
'Li, Xiayue'
'Lohani, Sanjaya'
'Leusen, Frank J. J.'
'Lund, Albert M.'
'Lv, Jian'
'Ma, Yanming'
'Marom, Noa'
'Masunov, Art\"em E.'
'McCabe, Patrick'
'McMahon, David P.'
'Meekes, Hugo'
'Metz, Michael P.'
'Misquitta, Alston J.'
'Mohamed, Sharmarke'
'Monserrat, Bartomeu'
'Needs, Richard J.'
'Neumann, Marcus A.'
'Nyman, Jonas'
'Obata, Shigeaki'
'Oberhofer, Harald'
'Oganov, Artem R.'
'Orendt, Anita M.'
'Pagola, Gabriel I.'
'Pantelides, Constantinos C.'
'Pickard, Chris J.'
'Podeszwa, Rafal'
'Price, Louise S.'
'Price, Sarah L.'
'Pulido, Angeles'
'Read, Murray G.'
'Reuter, Karsten'
'Schneider, Elia'
'Schober, Christoph'
'Shields, Gregory P.'
'Singh, Pawanpreet'
'Sugden, Isaac J.'
'Szalewicz, Krzysztof'
'Taylor, Christopher R.'
'Tkatchenko, Alexandre'
'Tuckerman, Mark E.'
'Vacarro, Francesca'
'Vasileiadis, Manolis'
'Vazquez-Mayagoitia, Alvaro'
'Vogt, Leslie'
'Wang, Yanchao'
'Watson, Rona E.'
'de Wijs, Gilles A.'
'Yang, Jack'
'Zhu, Qiang'
'Groom, Colin R.'
_publ_section_title
;
 Report on the sixth blind test of organic crystal structure prediction
 methods
;
_journal_issue                   4
_journal_name_full               'Acta Crystallographica Section B'
_journal_page_first              439
_journal_page_last               459
_journal_paper_doi               10.1107/S2052520616007447
_journal_volume                  72
_journal_year                    2016
_chemical_compound_source        'see text'
_chemical_formula_moiety         'C8 N4 S3'
_chemical_formula_sum            'C8 N4 S3'
_chemical_formula_weight         248.33
_space_group_IT_number           33
_symmetry_cell_setting           orthorhombic
_symmetry_Int_Tables_number      33
_symmetry_space_group_name_Hall  'P 2c -2n'
_symmetry_space_group_name_H-M   'P n a 21'
_atom_sites_solution_hydrogens   ' .'
_atom_sites_solution_primary     ' ?'
_atom_sites_solution_secondary   ' ?'
_cell_angle_alpha                90
_cell_angle_beta                 90
_cell_angle_gamma                90
_cell_formula_units_Z            4
_cell_length_a                   9.98430
_cell_length_b                   17.37870
_cell_length_c                   6.55890
_cell_volume                     1138.062
_computing_publication_material  'PLATON (Spek, 2003)'
_diffrn_radiation_probe          x-ray
_diffrn_radiation_type           MoK\a
_diffrn_radiation_wavelength     0.71073
_diffrn_reflns_reduction_process
;
;
_exptl_absorpt_coefficient_mu    0.621
_exptl_absorpt_correction_type   ' ?'
_exptl_crystal_colour            ' ?'
_exptl_crystal_density_diffrn    1.449
_exptl_crystal_density_method    'Not Measured'
_exptl_crystal_description       ' ?'
_exptl_crystal_F_000             496
_refine_ls_abs_structure_details 'Flack (1983)'
_refine_ls_extinction_method     ' ?'
_refine_ls_hydrogen_treatment    ' .'
_refine_ls_number_restraints     0
_refine_ls_weighting_scheme      ?
_iucr_refine_instructions_details
;
;
_cod_data_source_file            XXII-1_Goto_Obata.cif
_cod_data_source_block           XXII_R071
_cod_struct_determination_method theoretical
_cod_database_code               2107811
loop_
_symmetry_equiv_pos_site_id
_symmetry_equiv_pos_as_xyz
1 x,y,z
2 -x,-y,1/2+z
3 1/2-x,1/2+y,1/2+z
4 1/2+x,1/2-y,z
loop_
_atom_site_label
_atom_site_type_symbol
_atom_site_thermal_displace_type
_atom_site_fract_x
_atom_site_fract_y
_atom_site_fract_z
_atom_site_occupancy
_atom_site_U_iso_or_equiv
S1 S Uiso 0.73285 0.11184 0.24931 1.000 0.0500
S2 S Uiso 0.56874 0.09396 -0.20441 1.000 0.0500
S3 S Uiso 0.77394 -0.10152 -0.05326 1.000 0.0500
N1 N Uiso 0.67038 -0.04584 -0.18559 1.000 0.0500
N2 N Uiso 0.48953 0.25372 0.44976 1.000 0.0500
N3 N Uiso 0.29772 0.22588 -0.06627 1.000 0.0500
N4 N Uiso 0.95736 -0.06740 0.44455 1.000 0.0500
C1 C Uiso 0.58643 0.16021 0.17809 1.000 0.0500
C2 C Uiso 0.52097 0.15265 -0.00114 1.000 0.0500
C3 C Uiso 0.66177 0.02135 -0.08878 1.000 0.0500
C4 C Uiso 0.73151 0.02882 0.09874 1.000 0.0500
C5 C Uiso 0.80233 -0.03769 0.13928 1.000 0.0500
C6 C Uiso 0.53549 0.21268 0.32870 1.000 0.0500
C7 C Uiso 0.39953 0.19528 -0.03711 1.000 0.0500
C8 C Uiso 0.88811 -0.05380 0.30701 1.000 0.0500
loop_
_atom_type_symbol
_atom_type_description
_atom_type_scat_dispersion_real
_atom_type_scat_dispersion_imag
_atom_type_scat_source
C C 0.0033 0.0016 ' International Tables Vol C Tables 4.2.6.8 and 6.1.1.4'
N N 0.0061 0.0033 ' International Tables Vol C Tables 4.2.6.8 and 6.1.1.4'
S S 0.1246 0.1234 ' International Tables Vol C Tables 4.2.6.8 and 6.1.1.4'
loop_
_geom_angle_atom_site_label_1
_geom_angle_atom_site_label_2
_geom_angle_atom_site_label_3
_geom_angle
_geom_angle_publ_flag
C1 S1 C4 103.84 yes
C2 S2 C3 103.69 yes
N1 S3 C5 96.40 yes
S3 N1 C3 107.57 yes
S1 C1 C2 126.12 yes
S1 C1 C6 114.64 yes
C2 C1 C6 119.23 no
S2 C2 C1 126.10 yes
S2 C2 C7 113.93 yes
C1 C2 C7 119.97 no
S2 C3 N1 117.53 yes
S2 C3 C4 124.96 yes
N1 C3 C4 117.49 yes
S1 C4 C3 124.66 yes
S1 C4 C5 125.31 yes
C3 C4 C5 109.97 no
S3 C5 C4 108.48 yes
S3 C5 C8 123.04 yes
C4 C5 C8 128.48 no
N2 C6 C1 177.36 yes
N3 C7 C2 176.24 yes
N4 C8 C5 179.42 yes
loop_
_geom_bond_atom_site_label_1
_geom_bond_atom_site_label_2
_geom_bond_distance
_geom_bond_publ_flag
S1 C1 1.7499 yes
S1 C4 1.7485 yes
S2 C2 1.7451 yes
S2 C3 1.7408 yes
S3 N1 1.6610 yes
S3 C5 1.7046 yes
N1 C3 1.3319 yes
N2 C6 1.1618 yes
N3 C7 1.1630 yes
N4 C8 1.1609 yes
C1 C2 1.3514 no
C1 C6 1.4374 no
C2 C7 1.4404 no
C3 C4 1.4193 no
C4 C5 1.3808 no
C5 C8 1.4220 no
loop_
_geom_torsion_atom_site_label_1
_geom_torsion_atom_site_label_2
_geom_torsion_atom_site_label_3
_geom_torsion_atom_site_label_4
_geom_torsion
_geom_torsion_publ_flag
C1 S1 C4 C5 -159.69 no
C4 S1 C1 C2 -24.04 no
C4 S1 C1 C6 156.48 no
C1 S1 C4 C3 23.34 no
C3 S2 C2 C1 25.93 no
C3 S2 C2 C7 -153.88 no
C2 S2 C3 N1 155.64 no
C2 S2 C3 C4 -25.77 no
C5 S3 N1 C3 2.36 no
N1 S3 C5 C8 -179.81 no
N1 S3 C5 C4 -0.90 no
S3 N1 C3 C4 -3.33 no
S3 N1 C3 S2 175.36 no
C6 C1 C2 C7 -1.75 no
S1 C1 C2 C7 178.78 no
C6 C1 C2 S2 178.45 no
S1 C1 C2 S2 -1.01 no
S2 C3 C4 S1 1.54 no
S2 C3 C4 C5 -175.83 no
N1 C3 C4 C5 2.76 no
N1 C3 C4 S1 -179.87 no
S1 C4 C5 S3 -178.11 no
C3 C4 C5 C8 178.07 no
S1 C4 C5 C8 0.72 no
C3 C4 C5 S3 -0.77 no
