#------------------------------------------------------------------------------
#$Date: 2023-12-05 10:34:00 +0200 (Tue, 05 Dec 2023) $
#$Revision: 288031 $
#$URL: file:///home/coder/svn-repositories/cod/cif/2/10/78/2107800.cif $
#------------------------------------------------------------------------------
#
# This file is available in the Crystallography Open Database (COD),
# http://www.crystallography.net/. The original data for this entry
# were provided by IUCr Journals, http://journals.iucr.org/.
#
# The file may be used within the scientific community so long as
# proper attribution is given to the journal article from which the
# data were obtained.
#
data_2107800
loop_
_publ_author_name
'Reilly, Anthony M.'
'Cooper, Richard I.'
'Adjiman, Claire S.'
'Bhattacharya, Saswata'
'Boese, A. Daniel'
'Brandenburg, Jan Gerit'
'Bygrave, Peter J.'
'Bylsma, Rita'
'Campbell, Josh E.'
'Car, Roberto'
'Case, David H.'
'Chadha, Renu'
'Cole, Jason C.'
'Cosburn, Katherine'
'Cuppen, Herma M.'
'Curtis, Farren'
'Day, Graeme M.'
'DiStasio Jr, Robert A.'
'Dzyabchenko, Alexander'
'van Eijck, Bouke P.'
'Elking, Dennis M.'
'van den Ende, Joost A.'
'Facelli, Julio C.'
'Ferraro, Marta B.'
'Fusti-Molnar, Laszlo'
'Gatsiou, Christina-Anna'
'Gee, Thomas S.'
'de Gelder, Ren\'e'
'Ghiringhelli, Luca M.'
'Goto, Hitoshi'
'Grimme, Stefan'
'Guo, Rui'
'Hofmann, Detlef W. M.'
'Hoja, Johannes'
'Hylton, Rebecca K.'
'Iuzzolino, Luca'
'Jankiewicz, Wojciech'
'de Jong, Dani\"el T.'
'Kendrick, John'
'de Klerk, Niek J. J.'
'Ko, Hsin-Yu'
'Kuleshova, Liudmila N.'
'Li, Xiayue'
'Lohani, Sanjaya'
'Leusen, Frank J. J.'
'Lund, Albert M.'
'Lv, Jian'
'Ma, Yanming'
'Marom, Noa'
'Masunov, Art\"em E.'
'McCabe, Patrick'
'McMahon, David P.'
'Meekes, Hugo'
'Metz, Michael P.'
'Misquitta, Alston J.'
'Mohamed, Sharmarke'
'Monserrat, Bartomeu'
'Needs, Richard J.'
'Neumann, Marcus A.'
'Nyman, Jonas'
'Obata, Shigeaki'
'Oberhofer, Harald'
'Oganov, Artem R.'
'Orendt, Anita M.'
'Pagola, Gabriel I.'
'Pantelides, Constantinos C.'
'Pickard, Chris J.'
'Podeszwa, Rafal'
'Price, Louise S.'
'Price, Sarah L.'
'Pulido, Angeles'
'Read, Murray G.'
'Reuter, Karsten'
'Schneider, Elia'
'Schober, Christoph'
'Shields, Gregory P.'
'Singh, Pawanpreet'
'Sugden, Isaac J.'
'Szalewicz, Krzysztof'
'Taylor, Christopher R.'
'Tkatchenko, Alexandre'
'Tuckerman, Mark E.'
'Vacarro, Francesca'
'Vasileiadis, Manolis'
'Vazquez-Mayagoitia, Alvaro'
'Vogt, Leslie'
'Wang, Yanchao'
'Watson, Rona E.'
'de Wijs, Gilles A.'
'Yang, Jack'
'Zhu, Qiang'
'Groom, Colin R.'
_publ_section_title
;
 Report on the sixth blind test of organic crystal structure prediction
 methods
;
_journal_issue                   4
_journal_name_full               'Acta Crystallographica Section B'
_journal_page_first              439
_journal_page_last               459
_journal_paper_doi               10.1107/S2052520616007447
_journal_volume                  72
_journal_year                    2016
_chemical_compound_source        'see text'
_chemical_formula_moiety         'C8 N4 S3'
_chemical_formula_sum            'C8 N4 S3'
_chemical_formula_weight         248.33
_space_group_IT_number           14
_symmetry_cell_setting           monoclinic
_symmetry_Int_Tables_number      14
_symmetry_space_group_name_Hall  '-P 2ybc'
_symmetry_space_group_name_H-M   'P 1 21/c 1'
_atom_sites_solution_hydrogens   ' .'
_atom_sites_solution_primary     ' ?'
_atom_sites_solution_secondary   ' ?'
_cell_angle_alpha                90
_cell_angle_beta                 120.8010
_cell_angle_gamma                90
_cell_formula_units_Z            4
_cell_length_a                   11.08890
_cell_length_b                   9.31980
_cell_length_c                   12.43430
_cell_volume                     1103.786
_computing_publication_material  'PLATON (Spek, 2003)'
_diffrn_radiation_probe          x-ray
_diffrn_radiation_type           MoK\a
_diffrn_radiation_wavelength     0.71073
_diffrn_reflns_reduction_process
;
;
_exptl_absorpt_coefficient_mu    0.640
_exptl_absorpt_correction_type   ' ?'
_exptl_crystal_colour            ' ?'
_exptl_crystal_density_diffrn    1.494
_exptl_crystal_density_method    'Not Measured'
_exptl_crystal_description       ' ?'
_exptl_crystal_F_000             496
_refine_ls_extinction_method     ' ?'
_refine_ls_hydrogen_treatment    ' .'
_refine_ls_number_restraints     0
_refine_ls_weighting_scheme      ?
_iucr_refine_instructions_details
;
;
_cod_data_source_file            XXII-1_Goto_Obata.cif
_cod_data_source_block           XXII_R060
_cod_original_sg_symbol_H-M      'P 21/c'
_cod_struct_determination_method theoretical
_cod_database_code               2107800
loop_
_symmetry_equiv_pos_site_id
_symmetry_equiv_pos_as_xyz
1 x,y,z
2 -x,1/2+y,1/2-z
3 -x,-y,-z
4 x,1/2-y,1/2+z
loop_
_atom_site_label
_atom_site_type_symbol
_atom_site_thermal_displace_type
_atom_site_fract_x
_atom_site_fract_y
_atom_site_fract_z
_atom_site_occupancy
_atom_site_U_iso_or_equiv
S1 S Uiso 0.69118 0.42762 0.45394 1.000 0.0500
S2 S Uiso 0.69052 0.18653 0.65384 1.000 0.0500
S3 S Uiso 0.29795 0.23690 0.34335 1.000 0.0500
N1 N Uiso 0.41849 0.17350 0.48187 1.000 0.0500
N2 N Uiso 1.03482 0.30596 0.50124 1.000 0.0500
N3 N Uiso 1.02226 0.01218 0.72092 1.000 0.0500
N4 N Uiso 0.32184 0.53564 0.14597 1.000 0.0500
C1 C Uiso 0.82297 0.29860 0.53600 1.000 0.0500
C2 C Uiso 0.82138 0.19989 0.61514 1.000 0.0500
C3 C Uiso 0.54111 0.23130 0.51126 1.000 0.0500
C4 C Uiso 0.54092 0.33378 0.42650 1.000 0.0500
C5 C Uiso 0.40674 0.35128 0.32569 1.000 0.0500
C6 C Uiso 0.93884 0.30352 0.51510 1.000 0.0500
C7 C Uiso 0.93240 0.09638 0.67471 1.000 0.0500
C8 C Uiso 0.35945 0.44930 0.22411 1.000 0.0500
loop_
_atom_type_symbol
_atom_type_description
_atom_type_scat_dispersion_real
_atom_type_scat_dispersion_imag
_atom_type_scat_source
C C 0.0033 0.0016 ' International Tables Vol C Tables 4.2.6.8 and 6.1.1.4'
N N 0.0061 0.0033 ' International Tables Vol C Tables 4.2.6.8 and 6.1.1.4'
S S 0.1246 0.1234 ' International Tables Vol C Tables 4.2.6.8 and 6.1.1.4'
loop_
_geom_angle_atom_site_label_1
_geom_angle_atom_site_label_2
_geom_angle_atom_site_label_3
_geom_angle
_geom_angle_publ_flag
C1 S1 C4 101.32 yes
C2 S2 C3 101.11 yes
N1 S3 C5 96.28 yes
S3 N1 C3 107.98 yes
S1 C1 C2 124.74 yes
S1 C1 C6 115.32 yes
C2 C1 C6 119.94 no
S2 C2 C1 124.68 yes
S2 C2 C7 115.00 yes
C1 C2 C7 120.32 no
S2 C3 N1 119.18 yes
S2 C3 C4 123.59 yes
N1 C3 C4 117.12 yes
S1 C4 C3 123.39 yes
S1 C4 C5 126.39 yes
C3 C4 C5 110.16 no
S3 C5 C4 108.30 yes
S3 C5 C8 123.48 yes
C4 C5 C8 128.18 no
N2 C6 C1 178.23 yes
N3 C7 C2 178.76 yes
N4 C8 C5 176.04 yes
loop_
_geom_bond_atom_site_label_1
_geom_bond_atom_site_label_2
_geom_bond_distance
_geom_bond_publ_flag
S1 C1 1.7594 yes
S1 C4 1.7537 yes
S2 C2 1.7515 yes
S2 C3 1.7476 yes
S3 N1 1.6567 yes
S3 C5 1.7062 yes
N1 C3 1.3280 yes
N2 C6 1.1623 yes
N3 C7 1.1630 yes
N4 C8 1.1621 yes
C1 C2 1.3538 no
C1 C6 1.4361 no
C2 C7 1.4356 no
C3 C4 1.4215 no
C4 C5 1.3790 no
C5 C8 1.4236 no
loop_
_geom_torsion_atom_site_label_1
_geom_torsion_atom_site_label_2
_geom_torsion_atom_site_label_3
_geom_torsion_atom_site_label_4
_geom_torsion
_geom_torsion_publ_flag
C1 S1 C4 C5 -149.59 no
C4 S1 C1 C2 -33.22 no
C4 S1 C1 C6 147.28 no
C1 S1 C4 C3 33.51 no
C3 S2 C2 C1 36.23 no
C3 S2 C2 C7 -144.00 no
C2 S2 C3 N1 149.06 no
C2 S2 C3 C4 -34.80 no
C5 S3 N1 C3 -3.63 no
N1 S3 C5 C8 -174.67 no
N1 S3 C5 C4 3.29 no
S3 N1 C3 C4 3.11 no
S3 N1 C3 S2 179.50 no
C6 C1 C2 C7 -2.40 no
S1 C1 C2 C7 178.13 no
C6 C1 C2 S2 177.36 no
S1 C1 C2 S2 -2.11 no
S2 C3 C4 S1 0.41 no
S2 C3 C4 C5 -176.93 no
N1 C3 C4 C5 -0.72 no
N1 C3 C4 S1 176.63 no
S1 C4 C5 S3 -179.22 no
C3 C4 C5 C8 175.85 no
S1 C4 C5 C8 -1.39 no
C3 C4 C5 S3 -1.98 no
