#------------------------------------------------------------------------------
#$Date: 2023-12-05 10:34:00 +0200 (Tue, 05 Dec 2023) $
#$Revision: 288031 $
#$URL: file:///home/coder/svn-repositories/cod/cif/2/10/77/2107745.cif $
#------------------------------------------------------------------------------
#
# This file is available in the Crystallography Open Database (COD),
# http://www.crystallography.net/. The original data for this entry
# were provided by IUCr Journals, http://journals.iucr.org/.
#
# The file may be used within the scientific community so long as
# proper attribution is given to the journal article from which the
# data were obtained.
#
data_2107745
loop_
_publ_author_name
'Reilly, Anthony M.'
'Cooper, Richard I.'
'Adjiman, Claire S.'
'Bhattacharya, Saswata'
'Boese, A. Daniel'
'Brandenburg, Jan Gerit'
'Bygrave, Peter J.'
'Bylsma, Rita'
'Campbell, Josh E.'
'Car, Roberto'
'Case, David H.'
'Chadha, Renu'
'Cole, Jason C.'
'Cosburn, Katherine'
'Cuppen, Herma M.'
'Curtis, Farren'
'Day, Graeme M.'
'DiStasio Jr, Robert A.'
'Dzyabchenko, Alexander'
'van Eijck, Bouke P.'
'Elking, Dennis M.'
'van den Ende, Joost A.'
'Facelli, Julio C.'
'Ferraro, Marta B.'
'Fusti-Molnar, Laszlo'
'Gatsiou, Christina-Anna'
'Gee, Thomas S.'
'de Gelder, Ren\'e'
'Ghiringhelli, Luca M.'
'Goto, Hitoshi'
'Grimme, Stefan'
'Guo, Rui'
'Hofmann, Detlef W. M.'
'Hoja, Johannes'
'Hylton, Rebecca K.'
'Iuzzolino, Luca'
'Jankiewicz, Wojciech'
'de Jong, Dani\"el T.'
'Kendrick, John'
'de Klerk, Niek J. J.'
'Ko, Hsin-Yu'
'Kuleshova, Liudmila N.'
'Li, Xiayue'
'Lohani, Sanjaya'
'Leusen, Frank J. J.'
'Lund, Albert M.'
'Lv, Jian'
'Ma, Yanming'
'Marom, Noa'
'Masunov, Art\"em E.'
'McCabe, Patrick'
'McMahon, David P.'
'Meekes, Hugo'
'Metz, Michael P.'
'Misquitta, Alston J.'
'Mohamed, Sharmarke'
'Monserrat, Bartomeu'
'Needs, Richard J.'
'Neumann, Marcus A.'
'Nyman, Jonas'
'Obata, Shigeaki'
'Oberhofer, Harald'
'Oganov, Artem R.'
'Orendt, Anita M.'
'Pagola, Gabriel I.'
'Pantelides, Constantinos C.'
'Pickard, Chris J.'
'Podeszwa, Rafal'
'Price, Louise S.'
'Price, Sarah L.'
'Pulido, Angeles'
'Read, Murray G.'
'Reuter, Karsten'
'Schneider, Elia'
'Schober, Christoph'
'Shields, Gregory P.'
'Singh, Pawanpreet'
'Sugden, Isaac J.'
'Szalewicz, Krzysztof'
'Taylor, Christopher R.'
'Tkatchenko, Alexandre'
'Tuckerman, Mark E.'
'Vacarro, Francesca'
'Vasileiadis, Manolis'
'Vazquez-Mayagoitia, Alvaro'
'Vogt, Leslie'
'Wang, Yanchao'
'Watson, Rona E.'
'de Wijs, Gilles A.'
'Yang, Jack'
'Zhu, Qiang'
'Groom, Colin R.'
_publ_section_title
;
 Report on the sixth blind test of organic crystal structure prediction
 methods
;
_journal_issue                   4
_journal_name_full               'Acta Crystallographica Section B'
_journal_page_first              439
_journal_page_last               459
_journal_paper_doi               10.1107/S2052520616007447
_journal_volume                  72
_journal_year                    2016
_chemical_compound_source        'see text'
_chemical_formula_moiety         'C8 N4 S3'
_chemical_formula_sum            'C8 N4 S3'
_chemical_formula_weight         248.33
_space_group_IT_number           33
_symmetry_cell_setting           orthorhombic
_symmetry_Int_Tables_number      33
_symmetry_space_group_name_Hall  'P 2c -2n'
_symmetry_space_group_name_H-M   'P n a 21'
_atom_sites_solution_hydrogens   ' .'
_atom_sites_solution_primary     ' ?'
_atom_sites_solution_secondary   ' ?'
_cell_angle_alpha                90
_cell_angle_beta                 90
_cell_angle_gamma                90
_cell_formula_units_Z            4
_cell_length_a                   12.35480
_cell_length_b                   12.75340
_cell_length_c                   6.94900
_cell_volume                     1094.924
_computing_publication_material  'PLATON (Spek, 2003)'
_diffrn_radiation_probe          x-ray
_diffrn_radiation_type           MoK\a
_diffrn_radiation_wavelength     0.71073
_diffrn_reflns_reduction_process
;
;
_exptl_absorpt_coefficient_mu    0.645
_exptl_absorpt_correction_type   ' ?'
_exptl_crystal_colour            ' ?'
_exptl_crystal_density_diffrn    1.506
_exptl_crystal_density_method    'Not Measured'
_exptl_crystal_description       ' ?'
_exptl_crystal_F_000             496
_refine_ls_abs_structure_details 'Flack (1983)'
_refine_ls_extinction_method     ' ?'
_refine_ls_hydrogen_treatment    ' .'
_refine_ls_number_restraints     0
_refine_ls_weighting_scheme      ?
_iucr_refine_instructions_details
;
;
_cod_data_source_file            XXII-1_Goto_Obata.cif
_cod_data_source_block           XXII_R005
_cod_struct_determination_method theoretical
_cod_database_code               2107745
loop_
_symmetry_equiv_pos_site_id
_symmetry_equiv_pos_as_xyz
1 x,y,z
2 -x,-y,1/2+z
3 1/2-x,1/2+y,1/2+z
4 1/2+x,1/2-y,z
loop_
_atom_site_label
_atom_site_type_symbol
_atom_site_thermal_displace_type
_atom_site_fract_x
_atom_site_fract_y
_atom_site_fract_z
_atom_site_occupancy
_atom_site_U_iso_or_equiv
S1 S Uiso 0.19701 0.39226 0.13657 1.000 0.0500
S2 S Uiso 0.28761 0.39919 0.59071 1.000 0.0500
S3 S Uiso -0.04000 0.34640 0.56721 1.000 0.0500
N1 N Uiso 0.07900 0.36852 0.66933 1.000 0.0500
N2 N Uiso 0.36384 0.61515 -0.02792 1.000 0.0500
N3 N Uiso 0.47781 0.61731 0.51275 1.000 0.0500
N4 N Uiso -0.13251 0.35402 0.05048 1.000 0.0500
C1 C Uiso 0.29243 0.48230 0.22468 1.000 0.0500
C2 C Uiso 0.32913 0.48497 0.40794 1.000 0.0500
C3 C Uiso 0.15153 0.37995 0.52960 1.000 0.0500
C4 C Uiso 0.11286 0.37648 0.33689 1.000 0.0500
C5 C Uiso 0.00279 0.35863 0.33468 1.000 0.0500
C6 C Uiso 0.33273 0.55539 0.08536 1.000 0.0500
C7 C Uiso 0.40976 0.56006 0.46461 1.000 0.0500
C8 C Uiso -0.06929 0.35327 0.17457 1.000 0.0500
loop_
_atom_type_symbol
_atom_type_description
_atom_type_scat_dispersion_real
_atom_type_scat_dispersion_imag
_atom_type_scat_source
C C 0.0033 0.0016 ' International Tables Vol C Tables 4.2.6.8 and 6.1.1.4'
N N 0.0061 0.0033 ' International Tables Vol C Tables 4.2.6.8 and 6.1.1.4'
S S 0.1246 0.1234 ' International Tables Vol C Tables 4.2.6.8 and 6.1.1.4'
loop_
_geom_angle_atom_site_label_1
_geom_angle_atom_site_label_2
_geom_angle_atom_site_label_3
_geom_angle
_geom_angle_publ_flag
C1 S1 C4 101.35 yes
C2 S2 C3 101.11 yes
N1 S3 C5 96.61 yes
S3 N1 C3 107.70 yes
S1 C1 C2 124.75 yes
S1 C1 C6 115.03 yes
C2 C1 C6 120.22 no
S2 C2 C1 124.64 yes
S2 C2 C7 114.85 yes
C1 C2 C7 120.49 no
S2 C3 N1 119.04 yes
S2 C3 C4 123.71 yes
N1 C3 C4 117.25 yes
S1 C4 C3 123.09 yes
S1 C4 C5 126.61 yes
C3 C4 C5 110.29 no
S3 C5 C4 108.05 yes
S3 C5 C8 122.71 yes
C4 C5 C8 129.21 no
N2 C6 C1 178.99 yes
N3 C7 C2 177.10 yes
N4 C8 C5 175.25 yes
loop_
_geom_bond_atom_site_label_1
_geom_bond_atom_site_label_2
_geom_bond_distance
_geom_bond_publ_flag
S1 C1 1.7559 yes
S1 C4 1.7490 yes
S2 C2 1.7530 yes
S2 C3 1.7513 yes
S3 N1 1.6567 yes
S3 C5 1.7073 yes
N1 C3 1.3293 yes
N2 C6 1.1611 yes
N3 C7 1.1627 yes
N4 C8 1.1635 yes
C1 C2 1.3522 no
C1 C6 1.4332 no
C2 C7 1.4368 no
C3 C4 1.4225 no
C4 C5 1.3789 no
C5 C8 1.4267 no
loop_
_geom_torsion_atom_site_label_1
_geom_torsion_atom_site_label_2
_geom_torsion_atom_site_label_3
_geom_torsion_atom_site_label_4
_geom_torsion
_geom_torsion_publ_flag
C1 S1 C4 C5 146.54 no
C4 S1 C1 C2 35.05 no
C4 S1 C1 C6 -145.91 no
C1 S1 C4 C3 -33.93 no
C3 S2 C2 C1 -34.75 no
C3 S2 C2 C7 146.73 no
C2 S2 C3 N1 -144.84 no
C2 S2 C3 C4 34.67 no
C5 S3 N1 C3 -2.97 no
N1 S3 C5 C8 -176.14 no
N1 S3 C5 C4 2.22 no
S3 N1 C3 C4 3.04 no
S3 N1 C3 S2 -177.42 no
C6 C1 C2 C7 -0.77 no
S1 C1 C2 C7 178.22 no
C6 C1 C2 S2 -179.22 no
S1 C1 C2 S2 -0.23 no
S2 C3 C4 S1 -0.58 no
S2 C3 C4 C5 179.02 no
N1 C3 C4 C5 -1.46 no
N1 C3 C4 S1 178.94 no
S1 C4 C5 S3 178.75 no
C3 C4 C5 C8 177.38 no
S1 C4 C5 C8 -3.03 no
C3 C4 C5 S3 -0.84 no
