#------------------------------------------------------------------------------
#$Date: 2023-12-05 10:34:00 +0200 (Tue, 05 Dec 2023) $
#$Revision: 288031 $
#$URL: file:///home/coder/svn-repositories/cod/cif/2/10/77/2107772.cif $
#------------------------------------------------------------------------------
#
# This file is available in the Crystallography Open Database (COD),
# http://www.crystallography.net/. The original data for this entry
# were provided by IUCr Journals, http://journals.iucr.org/.
#
# The file may be used within the scientific community so long as
# proper attribution is given to the journal article from which the
# data were obtained.
#
data_2107772
loop_
_publ_author_name
'Reilly, Anthony M.'
'Cooper, Richard I.'
'Adjiman, Claire S.'
'Bhattacharya, Saswata'
'Boese, A. Daniel'
'Brandenburg, Jan Gerit'
'Bygrave, Peter J.'
'Bylsma, Rita'
'Campbell, Josh E.'
'Car, Roberto'
'Case, David H.'
'Chadha, Renu'
'Cole, Jason C.'
'Cosburn, Katherine'
'Cuppen, Herma M.'
'Curtis, Farren'
'Day, Graeme M.'
'DiStasio Jr, Robert A.'
'Dzyabchenko, Alexander'
'van Eijck, Bouke P.'
'Elking, Dennis M.'
'van den Ende, Joost A.'
'Facelli, Julio C.'
'Ferraro, Marta B.'
'Fusti-Molnar, Laszlo'
'Gatsiou, Christina-Anna'
'Gee, Thomas S.'
'de Gelder, Ren\'e'
'Ghiringhelli, Luca M.'
'Goto, Hitoshi'
'Grimme, Stefan'
'Guo, Rui'
'Hofmann, Detlef W. M.'
'Hoja, Johannes'
'Hylton, Rebecca K.'
'Iuzzolino, Luca'
'Jankiewicz, Wojciech'
'de Jong, Dani\"el T.'
'Kendrick, John'
'de Klerk, Niek J. J.'
'Ko, Hsin-Yu'
'Kuleshova, Liudmila N.'
'Li, Xiayue'
'Lohani, Sanjaya'
'Leusen, Frank J. J.'
'Lund, Albert M.'
'Lv, Jian'
'Ma, Yanming'
'Marom, Noa'
'Masunov, Art\"em E.'
'McCabe, Patrick'
'McMahon, David P.'
'Meekes, Hugo'
'Metz, Michael P.'
'Misquitta, Alston J.'
'Mohamed, Sharmarke'
'Monserrat, Bartomeu'
'Needs, Richard J.'
'Neumann, Marcus A.'
'Nyman, Jonas'
'Obata, Shigeaki'
'Oberhofer, Harald'
'Oganov, Artem R.'
'Orendt, Anita M.'
'Pagola, Gabriel I.'
'Pantelides, Constantinos C.'
'Pickard, Chris J.'
'Podeszwa, Rafal'
'Price, Louise S.'
'Price, Sarah L.'
'Pulido, Angeles'
'Read, Murray G.'
'Reuter, Karsten'
'Schneider, Elia'
'Schober, Christoph'
'Shields, Gregory P.'
'Singh, Pawanpreet'
'Sugden, Isaac J.'
'Szalewicz, Krzysztof'
'Taylor, Christopher R.'
'Tkatchenko, Alexandre'
'Tuckerman, Mark E.'
'Vacarro, Francesca'
'Vasileiadis, Manolis'
'Vazquez-Mayagoitia, Alvaro'
'Vogt, Leslie'
'Wang, Yanchao'
'Watson, Rona E.'
'de Wijs, Gilles A.'
'Yang, Jack'
'Zhu, Qiang'
'Groom, Colin R.'
_publ_section_title
;
 Report on the sixth blind test of organic crystal structure prediction
 methods
;
_journal_issue                   4
_journal_name_full               'Acta Crystallographica Section B'
_journal_page_first              439
_journal_page_last               459
_journal_paper_doi               10.1107/S2052520616007447
_journal_volume                  72
_journal_year                    2016
_chemical_compound_source        'see text'
_chemical_formula_moiety         'C8 N4 S3'
_chemical_formula_sum            'C8 N4 S3'
_chemical_formula_weight         248.33
_space_group_IT_number           19
_symmetry_cell_setting           orthorhombic
_symmetry_Int_Tables_number      19
_symmetry_space_group_name_Hall  'P 2ac 2ab'
_symmetry_space_group_name_H-M   'P 21 21 21'
_atom_sites_solution_hydrogens   ' .'
_atom_sites_solution_primary     ' ?'
_atom_sites_solution_secondary   ' ?'
_cell_angle_alpha                90
_cell_angle_beta                 90
_cell_angle_gamma                90
_cell_formula_units_Z            4
_cell_length_a                   6.42690
_cell_length_b                   12.81540
_cell_length_c                   13.83070
_cell_volume                     1139.142
_computing_publication_material  'PLATON (Spek, 2003)'
_diffrn_radiation_probe          x-ray
_diffrn_radiation_type           MoK\a
_diffrn_radiation_wavelength     0.71073
_diffrn_reflns_reduction_process
;
;
_exptl_absorpt_coefficient_mu    0.620
_exptl_absorpt_correction_type   ' ?'
_exptl_crystal_colour            ' ?'
_exptl_crystal_density_diffrn    1.448
_exptl_crystal_density_method    'Not Measured'
_exptl_crystal_description       ' ?'
_exptl_crystal_F_000             496
_refine_ls_abs_structure_details 'Flack (1983)'
_refine_ls_extinction_method     ' ?'
_refine_ls_hydrogen_treatment    ' .'
_refine_ls_number_restraints     0
_refine_ls_weighting_scheme      ?
_iucr_refine_instructions_details
;
;
_cod_data_source_file            XXII-1_Goto_Obata.cif
_cod_data_source_block           XXII_R032
_cod_struct_determination_method theoretical
_cod_database_code               2107772
loop_
_symmetry_equiv_pos_site_id
_symmetry_equiv_pos_as_xyz
1 x,y,z
2 1/2-x,-y,1/2+z
3 1/2+x,1/2-y,-z
4 -x,1/2+y,1/2-z
loop_
_atom_site_label
_atom_site_type_symbol
_atom_site_thermal_displace_type
_atom_site_fract_x
_atom_site_fract_y
_atom_site_fract_z
_atom_site_occupancy
_atom_site_U_iso_or_equiv
S1 S Uiso -0.22555 0.42854 0.44132 1.000 0.0500
S2 S Uiso 0.20641 0.55522 0.36612 1.000 0.0500
S3 S Uiso 0.23459 0.24067 0.30913 1.000 0.0500
N1 N Uiso 0.31667 0.36333 0.31326 1.000 0.0500
N2 N Uiso -0.30149 0.59019 0.65773 1.000 0.0500
N3 N Uiso 0.19973 0.74601 0.56471 1.000 0.0500
N4 N Uiso -0.26916 0.11854 0.39914 1.000 0.0500
C1 C Uiso -0.10608 0.53245 0.50208 1.000 0.0500
C2 C Uiso 0.06632 0.58323 0.47162 1.000 0.0500
C3 C Uiso 0.16814 0.42073 0.35399 1.000 0.0500
C4 C Uiso -0.01426 0.36772 0.38479 1.000 0.0500
C5 C Uiso -0.00058 0.26312 0.36234 1.000 0.0500
C6 C Uiso -0.21079 0.56503 0.58888 1.000 0.0500
C7 C Uiso 0.14195 0.67158 0.52486 1.000 0.0500
C8 C Uiso -0.14948 0.18354 0.38071 1.000 0.0500
loop_
_atom_type_symbol
_atom_type_description
_atom_type_scat_dispersion_real
_atom_type_scat_dispersion_imag
_atom_type_scat_source
C C 0.0033 0.0016 ' International Tables Vol C Tables 4.2.6.8 and 6.1.1.4'
N N 0.0061 0.0033 ' International Tables Vol C Tables 4.2.6.8 and 6.1.1.4'
S S 0.1246 0.1234 ' International Tables Vol C Tables 4.2.6.8 and 6.1.1.4'
loop_
_geom_angle_atom_site_label_1
_geom_angle_atom_site_label_2
_geom_angle_atom_site_label_3
_geom_angle
_geom_angle_publ_flag
C1 S1 C4 102.28 yes
C2 S2 C3 102.10 yes
N1 S3 C5 96.15 yes
S3 N1 C3 108.08 yes
S1 C1 C2 125.13 yes
S1 C1 C6 114.58 yes
C2 C1 C6 120.25 no
S2 C2 C1 125.59 yes
S2 C2 C7 114.51 yes
C1 C2 C7 119.82 no
S2 C3 N1 118.99 yes
S2 C3 C4 123.96 yes
N1 C3 C4 117.05 yes
S1 C4 C3 124.15 yes
S1 C4 C5 125.67 yes
C3 C4 C5 110.17 no
S3 C5 C4 108.52 yes
S3 C5 C8 123.55 yes
C4 C5 C8 127.91 no
N2 C6 C1 177.76 yes
N3 C7 C2 176.92 yes
N4 C8 C5 177.58 yes
loop_
_geom_bond_atom_site_label_1
_geom_bond_atom_site_label_2
_geom_bond_distance
_geom_bond_publ_flag
S1 C1 1.7519 yes
S1 C4 1.7501 yes
S2 C2 1.7517 yes
S2 C3 1.7491 yes
S3 N1 1.6591 yes
S3 C5 1.7055 yes
N1 C3 1.3303 yes
N2 C6 1.1621 yes
N3 C7 1.1625 yes
N4 C8 1.1621 yes
C1 C2 1.3523 no
C1 C6 1.4382 no
C2 C7 1.4354 no
C3 C4 1.4203 no
C4 C5 1.3788 no
C5 C8 1.4214 no
loop_
_geom_torsion_atom_site_label_1
_geom_torsion_atom_site_label_2
_geom_torsion_atom_site_label_3
_geom_torsion_atom_site_label_4
_geom_torsion
_geom_torsion_publ_flag
C1 S1 C4 C5 151.11 no
C4 S1 C1 C2 31.26 no
C4 S1 C1 C6 -150.95 no
C1 S1 C4 C3 -29.91 no
C3 S2 C2 C1 -31.01 no
C3 S2 C2 C7 152.22 no
C2 S2 C3 N1 -149.02 no
C2 S2 C3 C4 31.28 no
C5 S3 N1 C3 -0.22 no
N1 S3 C5 C8 -179.40 no
N1 S3 C5 C4 -0.75 no
S3 N1 C3 C4 1.18 no
S3 N1 C3 S2 -178.54 no
C6 C1 C2 C7 -1.55 no
S1 C1 C2 C7 176.12 no
C6 C1 C2 S2 -178.17 no
S1 C1 C2 S2 -0.50 no
S2 C3 C4 S1 -1.20 no
S2 C3 C4 C5 177.92 no
N1 C3 C4 C5 -1.78 no
N1 C3 C4 S1 179.10 no
S1 C4 C5 S3 -179.45 no
C3 C4 C5 C8 -180.00 no
S1 C4 C5 C8 -0.88 no
C3 C4 C5 S3 1.45 no
