#------------------------------------------------------------------------------
#$Date: 2023-12-05 10:34:00 +0200 (Tue, 05 Dec 2023) $
#$Revision: 288031 $
#$URL: file:///home/coder/svn-repositories/cod/cif/2/10/77/2107769.cif $
#------------------------------------------------------------------------------
#
# This file is available in the Crystallography Open Database (COD),
# http://www.crystallography.net/. The original data for this entry
# were provided by IUCr Journals, http://journals.iucr.org/.
#
# The file may be used within the scientific community so long as
# proper attribution is given to the journal article from which the
# data were obtained.
#
data_2107769
loop_
_publ_author_name
'Reilly, Anthony M.'
'Cooper, Richard I.'
'Adjiman, Claire S.'
'Bhattacharya, Saswata'
'Boese, A. Daniel'
'Brandenburg, Jan Gerit'
'Bygrave, Peter J.'
'Bylsma, Rita'
'Campbell, Josh E.'
'Car, Roberto'
'Case, David H.'
'Chadha, Renu'
'Cole, Jason C.'
'Cosburn, Katherine'
'Cuppen, Herma M.'
'Curtis, Farren'
'Day, Graeme M.'
'DiStasio Jr, Robert A.'
'Dzyabchenko, Alexander'
'van Eijck, Bouke P.'
'Elking, Dennis M.'
'van den Ende, Joost A.'
'Facelli, Julio C.'
'Ferraro, Marta B.'
'Fusti-Molnar, Laszlo'
'Gatsiou, Christina-Anna'
'Gee, Thomas S.'
'de Gelder, Ren\'e'
'Ghiringhelli, Luca M.'
'Goto, Hitoshi'
'Grimme, Stefan'
'Guo, Rui'
'Hofmann, Detlef W. M.'
'Hoja, Johannes'
'Hylton, Rebecca K.'
'Iuzzolino, Luca'
'Jankiewicz, Wojciech'
'de Jong, Dani\"el T.'
'Kendrick, John'
'de Klerk, Niek J. J.'
'Ko, Hsin-Yu'
'Kuleshova, Liudmila N.'
'Li, Xiayue'
'Lohani, Sanjaya'
'Leusen, Frank J. J.'
'Lund, Albert M.'
'Lv, Jian'
'Ma, Yanming'
'Marom, Noa'
'Masunov, Art\"em E.'
'McCabe, Patrick'
'McMahon, David P.'
'Meekes, Hugo'
'Metz, Michael P.'
'Misquitta, Alston J.'
'Mohamed, Sharmarke'
'Monserrat, Bartomeu'
'Needs, Richard J.'
'Neumann, Marcus A.'
'Nyman, Jonas'
'Obata, Shigeaki'
'Oberhofer, Harald'
'Oganov, Artem R.'
'Orendt, Anita M.'
'Pagola, Gabriel I.'
'Pantelides, Constantinos C.'
'Pickard, Chris J.'
'Podeszwa, Rafal'
'Price, Louise S.'
'Price, Sarah L.'
'Pulido, Angeles'
'Read, Murray G.'
'Reuter, Karsten'
'Schneider, Elia'
'Schober, Christoph'
'Shields, Gregory P.'
'Singh, Pawanpreet'
'Sugden, Isaac J.'
'Szalewicz, Krzysztof'
'Taylor, Christopher R.'
'Tkatchenko, Alexandre'
'Tuckerman, Mark E.'
'Vacarro, Francesca'
'Vasileiadis, Manolis'
'Vazquez-Mayagoitia, Alvaro'
'Vogt, Leslie'
'Wang, Yanchao'
'Watson, Rona E.'
'de Wijs, Gilles A.'
'Yang, Jack'
'Zhu, Qiang'
'Groom, Colin R.'
_publ_section_title
;
 Report on the sixth blind test of organic crystal structure prediction
 methods
;
_journal_issue                   4
_journal_name_full               'Acta Crystallographica Section B'
_journal_page_first              439
_journal_page_last               459
_journal_paper_doi               10.1107/S2052520616007447
_journal_volume                  72
_journal_year                    2016
_chemical_compound_source        'see text'
_chemical_formula_moiety         'C8 N4 S3'
_chemical_formula_sum            'C8 N4 S3'
_chemical_formula_weight         248.33
_space_group_IT_number           14
_symmetry_cell_setting           monoclinic
_symmetry_Int_Tables_number      14
_symmetry_space_group_name_Hall  '-P 2ybc'
_symmetry_space_group_name_H-M   'P 1 21/c 1'
_atom_sites_solution_hydrogens   ' .'
_atom_sites_solution_primary     ' ?'
_atom_sites_solution_secondary   ' ?'
_cell_angle_alpha                90
_cell_angle_beta                 105.9470
_cell_angle_gamma                90
_cell_formula_units_Z            4
_cell_length_a                   6.88680
_cell_length_b                   8.35500
_cell_length_c                   20.16750
_cell_volume                     1115.765
_computing_publication_material  'PLATON (Spek, 2003)'
_diffrn_radiation_probe          x-ray
_diffrn_radiation_type           MoK\a
_diffrn_radiation_wavelength     0.71073
_diffrn_reflns_reduction_process
;
;
_exptl_absorpt_coefficient_mu    0.633
_exptl_absorpt_correction_type   ' ?'
_exptl_crystal_colour            ' ?'
_exptl_crystal_density_diffrn    1.478
_exptl_crystal_density_method    'Not Measured'
_exptl_crystal_description       ' ?'
_exptl_crystal_F_000             496
_refine_ls_extinction_method     ' ?'
_refine_ls_hydrogen_treatment    ' .'
_refine_ls_number_restraints     0
_refine_ls_weighting_scheme      ?
_iucr_refine_instructions_details
;
;
_cod_data_source_file            XXII-1_Goto_Obata.cif
_cod_data_source_block           XXII_R029
_cod_original_sg_symbol_H-M      'P 21/c'
_cod_struct_determination_method theoretical
_cod_database_code               2107769
loop_
_symmetry_equiv_pos_site_id
_symmetry_equiv_pos_as_xyz
1 x,y,z
2 -x,1/2+y,1/2-z
3 -x,-y,-z
4 x,1/2-y,1/2+z
loop_
_atom_site_label
_atom_site_type_symbol
_atom_site_thermal_displace_type
_atom_site_fract_x
_atom_site_fract_y
_atom_site_fract_z
_atom_site_occupancy
_atom_site_U_iso_or_equiv
S1 S Uiso 0.49405 0.50084 0.10406 1.000 0.0500
S2 S Uiso 0.92689 0.33345 0.09684 1.000 0.0500
S3 S Uiso 0.93516 0.82226 0.07225 1.000 0.0500
N1 N Uiso 1.02245 0.63665 0.07751 1.000 0.0500
N2 N Uiso 0.44489 0.25525 0.25222 1.000 0.0500
N3 N Uiso 0.95792 0.05047 0.23922 1.000 0.0500
N4 N Uiso 0.44129 0.99658 0.08146 1.000 0.0500
C1 C Uiso 0.62176 0.35250 0.16111 1.000 0.0500
C2 C Uiso 0.79739 0.28466 0.15794 1.000 0.0500
C3 C Uiso 0.88141 0.53991 0.08848 1.000 0.0500
C4 C Uiso 0.69718 0.61152 0.09188 1.000 0.0500
C5 C Uiso 0.70443 0.77471 0.08320 1.000 0.0500
C6 C Uiso 0.52368 0.30078 0.21169 1.000 0.0500
C7 C Uiso 0.88772 0.15851 0.20456 1.000 0.0500
C8 C Uiso 0.55449 0.89235 0.08292 1.000 0.0500
loop_
_atom_type_symbol
_atom_type_description
_atom_type_scat_dispersion_real
_atom_type_scat_dispersion_imag
_atom_type_scat_source
C C 0.0033 0.0016 ' International Tables Vol C Tables 4.2.6.8 and 6.1.1.4'
N N 0.0061 0.0033 ' International Tables Vol C Tables 4.2.6.8 and 6.1.1.4'
S S 0.1246 0.1234 ' International Tables Vol C Tables 4.2.6.8 and 6.1.1.4'
loop_
_geom_angle_atom_site_label_1
_geom_angle_atom_site_label_2
_geom_angle_atom_site_label_3
_geom_angle
_geom_angle_publ_flag
C1 S1 C4 100.92 yes
C2 S2 C3 100.61 yes
N1 S3 C5 96.20 yes
S3 N1 C3 108.14 yes
S1 C1 C2 123.96 yes
S1 C1 C6 115.44 yes
C2 C1 C6 120.57 no
S2 C2 C1 124.67 yes
S2 C2 C7 114.70 yes
C1 C2 C7 120.58 no
S2 C3 N1 119.69 yes
S2 C3 C4 123.22 yes
N1 C3 C4 117.08 yes
S1 C4 C3 122.89 yes
S1 C4 C5 126.82 yes
C3 C4 C5 110.28 no
S3 C5 C4 108.29 yes
S3 C5 C8 122.51 yes
C4 C5 C8 129.20 no
N2 C6 C1 178.41 yes
N3 C7 C2 176.17 yes
N4 C8 C5 175.03 yes
loop_
_geom_bond_atom_site_label_1
_geom_bond_atom_site_label_2
_geom_bond_distance
_geom_bond_publ_flag
S1 C1 1.7542 yes
S1 C4 1.7496 yes
S2 C2 1.7561 yes
S2 C3 1.7530 yes
S3 N1 1.6560 yes
S3 C5 1.7101 yes
N1 C3 1.3281 yes
N2 C6 1.1623 yes
N3 C7 1.1625 yes
N4 C8 1.1638 yes
C1 C2 1.3531 no
C1 C6 1.4360 no
C2 C7 1.4354 no
C3 C4 1.4213 no
C4 C5 1.3773 no
C5 C8 1.4245 no
loop_
_geom_torsion_atom_site_label_1
_geom_torsion_atom_site_label_2
_geom_torsion_atom_site_label_3
_geom_torsion_atom_site_label_4
_geom_torsion
_geom_torsion_publ_flag
C1 S1 C4 C5 -144.53 no
C4 S1 C1 C2 -36.98 no
C4 S1 C1 C6 145.15 no
C1 S1 C4 C3 36.60 no
C3 S2 C2 C1 36.38 no
C3 S2 C2 C7 -146.24 no
C2 S2 C3 N1 145.38 no
C2 S2 C3 C4 -35.53 no
C5 S3 N1 C3 -0.97 no
N1 S3 C5 C8 -179.52 no
N1 S3 C5 C4 0.71 no
S3 N1 C3 C4 1.01 no
S3 N1 C3 S2 -179.84 no
C6 C1 C2 C7 0.71 no
S1 C1 C2 C7 -177.05 no
C6 C1 C2 S2 177.94 no
S1 C1 C2 S2 0.19 no
S2 C3 C4 S1 -0.59 no
S2 C3 C4 C5 -179.62 no
N1 C3 C4 C5 -0.51 no
N1 C3 C4 S1 178.53 no
S1 C4 C5 S3 -179.23 no
C3 C4 C5 C8 -180.00 no
S1 C4 C5 C8 1.02 no
C3 C4 C5 S3 -0.24 no
