#------------------------------------------------------------------------------
#$Date: 2023-12-05 10:34:00 +0200 (Tue, 05 Dec 2023) $
#$Revision: 288031 $
#$URL: file:///home/coder/svn-repositories/cod/cif/2/10/78/2107823.cif $
#------------------------------------------------------------------------------
#
# This file is available in the Crystallography Open Database (COD),
# http://www.crystallography.net/. The original data for this entry
# were provided by IUCr Journals, http://journals.iucr.org/.
#
# The file may be used within the scientific community so long as
# proper attribution is given to the journal article from which the
# data were obtained.
#
data_2107823
loop_
_publ_author_name
'Reilly, Anthony M.'
'Cooper, Richard I.'
'Adjiman, Claire S.'
'Bhattacharya, Saswata'
'Boese, A. Daniel'
'Brandenburg, Jan Gerit'
'Bygrave, Peter J.'
'Bylsma, Rita'
'Campbell, Josh E.'
'Car, Roberto'
'Case, David H.'
'Chadha, Renu'
'Cole, Jason C.'
'Cosburn, Katherine'
'Cuppen, Herma M.'
'Curtis, Farren'
'Day, Graeme M.'
'DiStasio Jr, Robert A.'
'Dzyabchenko, Alexander'
'van Eijck, Bouke P.'
'Elking, Dennis M.'
'van den Ende, Joost A.'
'Facelli, Julio C.'
'Ferraro, Marta B.'
'Fusti-Molnar, Laszlo'
'Gatsiou, Christina-Anna'
'Gee, Thomas S.'
'de Gelder, Ren\'e'
'Ghiringhelli, Luca M.'
'Goto, Hitoshi'
'Grimme, Stefan'
'Guo, Rui'
'Hofmann, Detlef W. M.'
'Hoja, Johannes'
'Hylton, Rebecca K.'
'Iuzzolino, Luca'
'Jankiewicz, Wojciech'
'de Jong, Dani\"el T.'
'Kendrick, John'
'de Klerk, Niek J. J.'
'Ko, Hsin-Yu'
'Kuleshova, Liudmila N.'
'Li, Xiayue'
'Lohani, Sanjaya'
'Leusen, Frank J. J.'
'Lund, Albert M.'
'Lv, Jian'
'Ma, Yanming'
'Marom, Noa'
'Masunov, Art\"em E.'
'McCabe, Patrick'
'McMahon, David P.'
'Meekes, Hugo'
'Metz, Michael P.'
'Misquitta, Alston J.'
'Mohamed, Sharmarke'
'Monserrat, Bartomeu'
'Needs, Richard J.'
'Neumann, Marcus A.'
'Nyman, Jonas'
'Obata, Shigeaki'
'Oberhofer, Harald'
'Oganov, Artem R.'
'Orendt, Anita M.'
'Pagola, Gabriel I.'
'Pantelides, Constantinos C.'
'Pickard, Chris J.'
'Podeszwa, Rafal'
'Price, Louise S.'
'Price, Sarah L.'
'Pulido, Angeles'
'Read, Murray G.'
'Reuter, Karsten'
'Schneider, Elia'
'Schober, Christoph'
'Shields, Gregory P.'
'Singh, Pawanpreet'
'Sugden, Isaac J.'
'Szalewicz, Krzysztof'
'Taylor, Christopher R.'
'Tkatchenko, Alexandre'
'Tuckerman, Mark E.'
'Vacarro, Francesca'
'Vasileiadis, Manolis'
'Vazquez-Mayagoitia, Alvaro'
'Vogt, Leslie'
'Wang, Yanchao'
'Watson, Rona E.'
'de Wijs, Gilles A.'
'Yang, Jack'
'Zhu, Qiang'
'Groom, Colin R.'
_publ_section_title
;
 Report on the sixth blind test of organic crystal structure prediction
 methods
;
_journal_issue                   4
_journal_name_full               'Acta Crystallographica Section B'
_journal_page_first              439
_journal_page_last               459
_journal_paper_doi               10.1107/S2052520616007447
_journal_volume                  72
_journal_year                    2016
_chemical_compound_source        'see text'
_chemical_formula_moiety         'C8 N4 S3'
_chemical_formula_sum            'C8 N4 S3'
_chemical_formula_weight         248.33
_space_group_IT_number           19
_symmetry_cell_setting           orthorhombic
_symmetry_Int_Tables_number      19
_symmetry_space_group_name_Hall  'P 2ac 2ab'
_symmetry_space_group_name_H-M   'P 21 21 21'
_atom_sites_solution_hydrogens   ' .'
_atom_sites_solution_primary     ' ?'
_atom_sites_solution_secondary   ' ?'
_cell_angle_alpha                90
_cell_angle_beta                 90
_cell_angle_gamma                90
_cell_formula_units_Z            4
_cell_length_a                   6.97370
_cell_length_b                   9.34000
_cell_length_c                   17.13530
_cell_volume                     1116.097
_computing_publication_material  'PLATON (Spek, 2003)'
_diffrn_radiation_probe          x-ray
_diffrn_radiation_type           MoK\a
_diffrn_radiation_wavelength     0.71073
_diffrn_reflns_reduction_process
;
;
_exptl_absorpt_coefficient_mu    0.633
_exptl_absorpt_correction_type   ' ?'
_exptl_crystal_colour            ' ?'
_exptl_crystal_density_diffrn    1.478
_exptl_crystal_density_method    'Not Measured'
_exptl_crystal_description       ' ?'
_exptl_crystal_F_000             496
_refine_ls_abs_structure_details 'Flack (1983)'
_refine_ls_extinction_method     ' ?'
_refine_ls_hydrogen_treatment    ' .'
_refine_ls_number_restraints     0
_refine_ls_weighting_scheme      ?
_iucr_refine_instructions_details
;
;
_cod_data_source_file            XXII-1_Goto_Obata.cif
_cod_data_source_block           XXII_R083
_cod_struct_determination_method theoretical
_cod_database_code               2107823
loop_
_symmetry_equiv_pos_site_id
_symmetry_equiv_pos_as_xyz
1 x,y,z
2 1/2-x,-y,1/2+z
3 1/2+x,1/2-y,-z
4 -x,1/2+y,1/2-z
loop_
_atom_site_label
_atom_site_type_symbol
_atom_site_thermal_displace_type
_atom_site_fract_x
_atom_site_fract_y
_atom_site_fract_z
_atom_site_occupancy
_atom_site_U_iso_or_equiv
S1 S Uiso 0.25476 0.51505 0.07874 1.000 0.0500
S2 S Uiso -0.19529 0.66910 0.08861 1.000 0.0500
S3 S Uiso -0.12526 0.42450 -0.10684 1.000 0.0500
N1 N Uiso -0.23102 0.53703 -0.04558 1.000 0.0500
N2 N Uiso 0.44955 0.75443 0.23032 1.000 0.0500
N3 N Uiso -0.05125 0.93721 0.23202 1.000 0.0500
N4 N Uiso 0.37571 0.26436 -0.10372 1.000 0.0500
C1 C Uiso 0.18199 0.65541 0.13928 1.000 0.0500
C2 C Uiso 0.00655 0.71644 0.14239 1.000 0.0500
C3 C Uiso -0.11057 0.56225 0.01318 1.000 0.0500
C4 C Uiso 0.07351 0.49824 0.00895 1.000 0.0500
C5 C Uiso 0.08686 0.41533 -0.05768 1.000 0.0500
C6 C Uiso 0.33008 0.70741 0.19055 1.000 0.0500
C7 C Uiso -0.02580 0.83565 0.19417 1.000 0.0500
C8 C Uiso 0.24497 0.33191 -0.08364 1.000 0.0500
loop_
_atom_type_symbol
_atom_type_description
_atom_type_scat_dispersion_real
_atom_type_scat_dispersion_imag
_atom_type_scat_source
C C 0.0033 0.0016 ' International Tables Vol C Tables 4.2.6.8 and 6.1.1.4'
N N 0.0061 0.0033 ' International Tables Vol C Tables 4.2.6.8 and 6.1.1.4'
S S 0.1246 0.1234 ' International Tables Vol C Tables 4.2.6.8 and 6.1.1.4'
loop_
_geom_angle_atom_site_label_1
_geom_angle_atom_site_label_2
_geom_angle_atom_site_label_3
_geom_angle
_geom_angle_publ_flag
C1 S1 C4 105.29 yes
C2 S2 C3 105.37 yes
N1 S3 C5 96.03 yes
S3 N1 C3 108.06 yes
S1 C1 C2 127.10 yes
S1 C1 C6 114.01 yes
C2 C1 C6 118.89 no
S2 C2 C1 127.21 yes
S2 C2 C7 113.31 yes
C1 C2 C7 119.47 no
S2 C3 N1 116.72 yes
S2 C3 C4 126.04 yes
N1 C3 C4 117.23 yes
S1 C4 C3 125.60 yes
S1 C4 C5 124.53 yes
C3 C4 C5 109.83 no
S3 C5 C4 108.75 yes
S3 C5 C8 123.10 yes
C4 C5 C8 128.14 no
N2 C6 C1 177.31 yes
N3 C7 C2 175.86 yes
N4 C8 C5 178.87 yes
loop_
_geom_bond_atom_site_label_1
_geom_bond_atom_site_label_2
_geom_bond_distance
_geom_bond_publ_flag
S1 C1 1.7471 yes
S1 C4 1.7471 yes
S2 C2 1.7395 yes
S2 C3 1.7366 yes
S3 N1 1.6585 yes
S3 C5 1.7044 yes
N1 C3 1.3322 yes
N2 C6 1.1625 yes
N3 C7 1.1627 yes
N4 C8 1.1609 yes
C1 C2 1.3508 no
C1 C6 1.4402 no
C2 C7 1.4415 no
C3 C4 1.4180 no
C4 C5 1.3827 no
C5 C8 1.4215 no
loop_
_geom_torsion_atom_site_label_1
_geom_torsion_atom_site_label_2
_geom_torsion_atom_site_label_3
_geom_torsion_atom_site_label_4
_geom_torsion
_geom_torsion_publ_flag
C1 S1 C4 C5 169.20 no
C4 S1 C1 C2 13.08 no
C4 S1 C1 C6 -167.22 no
C1 S1 C4 C3 -13.33 no
C3 S2 C2 C1 -15.41 no
C3 S2 C2 C7 163.81 no
C2 S2 C3 N1 -166.18 no
C2 S2 C3 C4 14.66 no
C5 S3 N1 C3 -2.74 no
N1 S3 C5 C8 -179.23 no
N1 S3 C5 C4 1.72 no
S3 N1 C3 C4 3.17 no
S3 N1 C3 S2 -176.06 no
C6 C1 C2 C7 2.72 no
S1 C1 C2 C7 -177.60 no
C6 C1 C2 S2 -178.11 no
S1 C1 C2 S2 1.58 no
S2 C3 C4 S1 -0.60 no
S2 C3 C4 C5 177.19 no
N1 C3 C4 C5 -1.97 no
N1 C3 C4 S1 -179.75 no
S1 C4 C5 S3 177.60 no
C3 C4 C5 C8 -179.21 no
S1 C4 C5 C8 -1.40 no
C3 C4 C5 S3 -0.22 no
