#------------------------------------------------------------------------------
#$Date: 2023-12-05 10:34:00 +0200 (Tue, 05 Dec 2023) $
#$Revision: 288031 $
#$URL: file:///home/coder/svn-repositories/cod/cif/2/10/77/2107795.cif $
#------------------------------------------------------------------------------
#
# This file is available in the Crystallography Open Database (COD),
# http://www.crystallography.net/. The original data for this entry
# were provided by IUCr Journals, http://journals.iucr.org/.
#
# The file may be used within the scientific community so long as
# proper attribution is given to the journal article from which the
# data were obtained.
#
data_2107795
loop_
_publ_author_name
'Reilly, Anthony M.'
'Cooper, Richard I.'
'Adjiman, Claire S.'
'Bhattacharya, Saswata'
'Boese, A. Daniel'
'Brandenburg, Jan Gerit'
'Bygrave, Peter J.'
'Bylsma, Rita'
'Campbell, Josh E.'
'Car, Roberto'
'Case, David H.'
'Chadha, Renu'
'Cole, Jason C.'
'Cosburn, Katherine'
'Cuppen, Herma M.'
'Curtis, Farren'
'Day, Graeme M.'
'DiStasio Jr, Robert A.'
'Dzyabchenko, Alexander'
'van Eijck, Bouke P.'
'Elking, Dennis M.'
'van den Ende, Joost A.'
'Facelli, Julio C.'
'Ferraro, Marta B.'
'Fusti-Molnar, Laszlo'
'Gatsiou, Christina-Anna'
'Gee, Thomas S.'
'de Gelder, Ren\'e'
'Ghiringhelli, Luca M.'
'Goto, Hitoshi'
'Grimme, Stefan'
'Guo, Rui'
'Hofmann, Detlef W. M.'
'Hoja, Johannes'
'Hylton, Rebecca K.'
'Iuzzolino, Luca'
'Jankiewicz, Wojciech'
'de Jong, Dani\"el T.'
'Kendrick, John'
'de Klerk, Niek J. J.'
'Ko, Hsin-Yu'
'Kuleshova, Liudmila N.'
'Li, Xiayue'
'Lohani, Sanjaya'
'Leusen, Frank J. J.'
'Lund, Albert M.'
'Lv, Jian'
'Ma, Yanming'
'Marom, Noa'
'Masunov, Art\"em E.'
'McCabe, Patrick'
'McMahon, David P.'
'Meekes, Hugo'
'Metz, Michael P.'
'Misquitta, Alston J.'
'Mohamed, Sharmarke'
'Monserrat, Bartomeu'
'Needs, Richard J.'
'Neumann, Marcus A.'
'Nyman, Jonas'
'Obata, Shigeaki'
'Oberhofer, Harald'
'Oganov, Artem R.'
'Orendt, Anita M.'
'Pagola, Gabriel I.'
'Pantelides, Constantinos C.'
'Pickard, Chris J.'
'Podeszwa, Rafal'
'Price, Louise S.'
'Price, Sarah L.'
'Pulido, Angeles'
'Read, Murray G.'
'Reuter, Karsten'
'Schneider, Elia'
'Schober, Christoph'
'Shields, Gregory P.'
'Singh, Pawanpreet'
'Sugden, Isaac J.'
'Szalewicz, Krzysztof'
'Taylor, Christopher R.'
'Tkatchenko, Alexandre'
'Tuckerman, Mark E.'
'Vacarro, Francesca'
'Vasileiadis, Manolis'
'Vazquez-Mayagoitia, Alvaro'
'Vogt, Leslie'
'Wang, Yanchao'
'Watson, Rona E.'
'de Wijs, Gilles A.'
'Yang, Jack'
'Zhu, Qiang'
'Groom, Colin R.'
_publ_section_title
;
 Report on the sixth blind test of organic crystal structure prediction
 methods
;
_journal_issue                   4
_journal_name_full               'Acta Crystallographica Section B'
_journal_page_first              439
_journal_page_last               459
_journal_paper_doi               10.1107/S2052520616007447
_journal_volume                  72
_journal_year                    2016
_chemical_compound_source        'see text'
_chemical_formula_moiety         'C8 N4 S3'
_chemical_formula_sum            'C8 N4 S3'
_chemical_formula_weight         248.33
_space_group_IT_number           4
_symmetry_cell_setting           monoclinic
_symmetry_Int_Tables_number      4
_symmetry_space_group_name_Hall  'P 2yb'
_symmetry_space_group_name_H-M   'P 1 21 1'
_atom_sites_solution_hydrogens   ' .'
_atom_sites_solution_primary     ' ?'
_atom_sites_solution_secondary   ' ?'
_cell_angle_alpha                90
_cell_angle_beta                 92.9580
_cell_angle_gamma                90
_cell_formula_units_Z            2
_cell_length_a                   6.49910
_cell_length_b                   8.39960
_cell_length_c                   10.39790
_cell_volume                     566.863
_computing_publication_material  'PLATON (Spek, 2003)'
_diffrn_radiation_probe          x-ray
_diffrn_radiation_type           MoK\a
_diffrn_radiation_wavelength     0.71073
_diffrn_reflns_reduction_process
;
;
_exptl_absorpt_coefficient_mu    0.623
_exptl_absorpt_correction_type   ' ?'
_exptl_crystal_colour            ' ?'
_exptl_crystal_density_diffrn    1.455
_exptl_crystal_density_method    'Not Measured'
_exptl_crystal_description       ' ?'
_exptl_crystal_F_000             248
_refine_ls_abs_structure_details 'Flack (1983)'
_refine_ls_extinction_method     ' ?'
_refine_ls_hydrogen_treatment    ' .'
_refine_ls_number_restraints     0
_refine_ls_weighting_scheme      ?
_iucr_refine_instructions_details
;
;
_cod_data_source_file            XXII-1_Goto_Obata.cif
_cod_data_source_block           XXII_R055
_cod_original_sg_symbol_H-M      'P 21'
_cod_struct_determination_method theoretical
_cod_database_code               2107795
loop_
_symmetry_equiv_pos_site_id
_symmetry_equiv_pos_as_xyz
1 x,y,z
2 -x,1/2+y,-z
loop_
_atom_site_label
_atom_site_type_symbol
_atom_site_thermal_displace_type
_atom_site_fract_x
_atom_site_fract_y
_atom_site_fract_z
_atom_site_occupancy
_atom_site_U_iso_or_equiv
S1 S Uiso 0.13615 0.72552 0.18587 1.000 0.0500
S2 S Uiso 0.59356 0.53090 0.22019 1.000 0.0500
S3 S Uiso 0.36563 0.53258 -0.15480 1.000 0.0500
N1 N Uiso 0.52778 0.49114 -0.03087 1.000 0.0500
N2 N Uiso -0.01701 0.61361 0.51330 1.000 0.0500
N3 N Uiso 0.48917 0.37066 0.54066 1.000 0.0500
N4 N Uiso -0.12930 0.77509 -0.17083 1.000 0.0500
C1 C Uiso 0.22158 0.61259 0.32004 1.000 0.0500
C2 C Uiso 0.40246 0.53297 0.33244 1.000 0.0500
C3 C Uiso 0.45067 0.55164 0.07454 1.000 0.0500
C4 C Uiso 0.25943 0.63308 0.05964 1.000 0.0500
C5 C Uiso 0.19180 0.63372 -0.06835 1.000 0.0500
C6 C Uiso 0.08647 0.61314 0.42539 1.000 0.0500
C7 C Uiso 0.45258 0.44426 0.44769 1.000 0.0500
C8 C Uiso 0.01286 0.70800 -0.12535 1.000 0.0500
loop_
_atom_type_symbol
_atom_type_description
_atom_type_scat_dispersion_real
_atom_type_scat_dispersion_imag
_atom_type_scat_source
C C 0.0033 0.0016 ' International Tables Vol C Tables 4.2.6.8 and 6.1.1.4'
N N 0.0061 0.0033 ' International Tables Vol C Tables 4.2.6.8 and 6.1.1.4'
S S 0.1246 0.1234 ' International Tables Vol C Tables 4.2.6.8 and 6.1.1.4'
loop_
_geom_angle_atom_site_label_1
_geom_angle_atom_site_label_2
_geom_angle_atom_site_label_3
_geom_angle
_geom_angle_publ_flag
C1 S1 C4 102.58 yes
C2 S2 C3 102.36 yes
N1 S3 C5 96.12 yes
S3 N1 C3 107.99 yes
S1 C1 C2 125.53 yes
S1 C1 C6 115.05 yes
C2 C1 C6 119.37 no
S2 C2 C1 125.82 yes
S2 C2 C7 114.47 yes
C1 C2 C7 119.68 no
S2 C3 N1 118.12 yes
S2 C3 C4 124.52 yes
N1 C3 C4 117.34 yes
S1 C4 C3 124.24 yes
S1 C4 C5 125.80 yes
C3 C4 C5 109.91 no
S3 C5 C4 108.64 yes
S3 C5 C8 123.26 yes
C4 C5 C8 128.07 no
N2 C6 C1 177.74 yes
N3 C7 C2 178.52 yes
N4 C8 C5 177.01 yes
loop_
_geom_bond_atom_site_label_1
_geom_bond_atom_site_label_2
_geom_bond_distance
_geom_bond_publ_flag
S1 C1 1.7534 yes
S1 C4 1.7539 yes
S2 C2 1.7478 yes
S2 C3 1.7439 yes
S3 N1 1.6589 yes
S3 C5 1.7061 yes
N1 C3 1.3294 yes
N2 C6 1.1625 yes
N3 C7 1.1617 yes
N4 C8 1.1618 yes
C1 C2 1.3528 no
C1 C6 1.4388 no
C2 C7 1.4343 no
C3 C4 1.4202 no
C4 C5 1.3798 no
C5 C8 1.4219 no
loop_
_geom_torsion_atom_site_label_1
_geom_torsion_atom_site_label_2
_geom_torsion_atom_site_label_3
_geom_torsion_atom_site_label_4
_geom_torsion
_geom_torsion_publ_flag
C1 S1 C4 C5 154.44 no
C4 S1 C1 C2 27.83 no
C4 S1 C1 C6 -154.68 no
C1 S1 C4 C3 -28.46 no
C3 S2 C2 C1 -31.05 no
C3 S2 C2 C7 150.87 no
C2 S2 C3 N1 -152.56 no
C2 S2 C3 C4 29.38 no
C5 S3 N1 C3 0.55 no
N1 S3 C5 C8 177.26 no
N1 S3 C5 C4 -0.97 no
S3 N1 C3 C4 0.00 no
S3 N1 C3 S2 -178.19 no
C6 C1 C2 C7 2.92 no
S1 C1 C2 C7 -179.68 no
C6 C1 C2 S2 -175.06 no
S1 C1 C2 S2 2.33 no
S2 C3 C4 S1 -0.16 no
S2 C3 C4 C5 177.34 no
N1 C3 C4 C5 -0.73 no
N1 C3 C4 S1 -178.23 no
S1 C4 C5 S3 178.52 no
C3 C4 C5 C8 -177.06 no
S1 C4 C5 C8 0.39 no
C3 C4 C5 S3 1.07 no
