#------------------------------------------------------------------------------
#$Date: 2023-12-05 10:34:00 +0200 (Tue, 05 Dec 2023) $
#$Revision: 288031 $
#$URL: file:///home/coder/svn-repositories/cod/cif/2/10/77/2107775.cif $
#------------------------------------------------------------------------------
#
# This file is available in the Crystallography Open Database (COD),
# http://www.crystallography.net/. The original data for this entry
# were provided by IUCr Journals, http://journals.iucr.org/.
#
# The file may be used within the scientific community so long as
# proper attribution is given to the journal article from which the
# data were obtained.
#
data_2107775
loop_
_publ_author_name
'Reilly, Anthony M.'
'Cooper, Richard I.'
'Adjiman, Claire S.'
'Bhattacharya, Saswata'
'Boese, A. Daniel'
'Brandenburg, Jan Gerit'
'Bygrave, Peter J.'
'Bylsma, Rita'
'Campbell, Josh E.'
'Car, Roberto'
'Case, David H.'
'Chadha, Renu'
'Cole, Jason C.'
'Cosburn, Katherine'
'Cuppen, Herma M.'
'Curtis, Farren'
'Day, Graeme M.'
'DiStasio Jr, Robert A.'
'Dzyabchenko, Alexander'
'van Eijck, Bouke P.'
'Elking, Dennis M.'
'van den Ende, Joost A.'
'Facelli, Julio C.'
'Ferraro, Marta B.'
'Fusti-Molnar, Laszlo'
'Gatsiou, Christina-Anna'
'Gee, Thomas S.'
'de Gelder, Ren\'e'
'Ghiringhelli, Luca M.'
'Goto, Hitoshi'
'Grimme, Stefan'
'Guo, Rui'
'Hofmann, Detlef W. M.'
'Hoja, Johannes'
'Hylton, Rebecca K.'
'Iuzzolino, Luca'
'Jankiewicz, Wojciech'
'de Jong, Dani\"el T.'
'Kendrick, John'
'de Klerk, Niek J. J.'
'Ko, Hsin-Yu'
'Kuleshova, Liudmila N.'
'Li, Xiayue'
'Lohani, Sanjaya'
'Leusen, Frank J. J.'
'Lund, Albert M.'
'Lv, Jian'
'Ma, Yanming'
'Marom, Noa'
'Masunov, Art\"em E.'
'McCabe, Patrick'
'McMahon, David P.'
'Meekes, Hugo'
'Metz, Michael P.'
'Misquitta, Alston J.'
'Mohamed, Sharmarke'
'Monserrat, Bartomeu'
'Needs, Richard J.'
'Neumann, Marcus A.'
'Nyman, Jonas'
'Obata, Shigeaki'
'Oberhofer, Harald'
'Oganov, Artem R.'
'Orendt, Anita M.'
'Pagola, Gabriel I.'
'Pantelides, Constantinos C.'
'Pickard, Chris J.'
'Podeszwa, Rafal'
'Price, Louise S.'
'Price, Sarah L.'
'Pulido, Angeles'
'Read, Murray G.'
'Reuter, Karsten'
'Schneider, Elia'
'Schober, Christoph'
'Shields, Gregory P.'
'Singh, Pawanpreet'
'Sugden, Isaac J.'
'Szalewicz, Krzysztof'
'Taylor, Christopher R.'
'Tkatchenko, Alexandre'
'Tuckerman, Mark E.'
'Vacarro, Francesca'
'Vasileiadis, Manolis'
'Vazquez-Mayagoitia, Alvaro'
'Vogt, Leslie'
'Wang, Yanchao'
'Watson, Rona E.'
'de Wijs, Gilles A.'
'Yang, Jack'
'Zhu, Qiang'
'Groom, Colin R.'
_publ_section_title
;
 Report on the sixth blind test of organic crystal structure prediction
 methods
;
_journal_issue                   4
_journal_name_full               'Acta Crystallographica Section B'
_journal_page_first              439
_journal_page_last               459
_journal_paper_doi               10.1107/S2052520616007447
_journal_volume                  72
_journal_year                    2016
_chemical_compound_source        'see text'
_chemical_formula_moiety         'C8 N4 S3'
_chemical_formula_sum            'C8 N4 S3'
_chemical_formula_weight         248.33
_space_group_IT_number           33
_symmetry_cell_setting           orthorhombic
_symmetry_Int_Tables_number      33
_symmetry_space_group_name_Hall  'P 2c -2n'
_symmetry_space_group_name_H-M   'P n a 21'
_atom_sites_solution_hydrogens   ' .'
_atom_sites_solution_primary     ' ?'
_atom_sites_solution_secondary   ' ?'
_cell_angle_alpha                90
_cell_angle_beta                 90
_cell_angle_gamma                90
_cell_formula_units_Z            4
_cell_length_a                   22.95410
_cell_length_b                   7.52870
_cell_length_c                   6.18570
_cell_volume                     1068.979
_computing_publication_material  'PLATON (Spek, 2003)'
_diffrn_radiation_probe          x-ray
_diffrn_radiation_type           MoK\a
_diffrn_radiation_wavelength     0.71073
_diffrn_reflns_reduction_process
;
;
_exptl_absorpt_coefficient_mu    0.661
_exptl_absorpt_correction_type   ' ?'
_exptl_crystal_colour            ' ?'
_exptl_crystal_density_diffrn    1.543
_exptl_crystal_density_method    'Not Measured'
_exptl_crystal_description       ' ?'
_exptl_crystal_F_000             496
_refine_ls_abs_structure_details 'Flack (1983)'
_refine_ls_extinction_method     ' ?'
_refine_ls_hydrogen_treatment    ' .'
_refine_ls_number_restraints     0
_refine_ls_weighting_scheme      ?
_iucr_refine_instructions_details
;
;
_cod_data_source_file            XXII-1_Goto_Obata.cif
_cod_data_source_block           XXII_R035
_cod_struct_determination_method theoretical
_cod_database_code               2107775
loop_
_symmetry_equiv_pos_site_id
_symmetry_equiv_pos_as_xyz
1 x,y,z
2 -x,-y,1/2+z
3 1/2-x,1/2+y,1/2+z
4 1/2+x,1/2-y,z
loop_
_atom_site_label
_atom_site_type_symbol
_atom_site_thermal_displace_type
_atom_site_fract_x
_atom_site_fract_y
_atom_site_fract_z
_atom_site_occupancy
_atom_site_U_iso_or_equiv
S1 S Uiso 0.11088 0.45088 0.53452 1.000 0.0500
S2 S Uiso 0.15266 0.24341 0.98190 1.000 0.0500
S3 S Uiso 0.21645 0.75499 0.95590 1.000 0.0500
N1 N Uiso 0.20787 0.55134 1.05600 1.000 0.0500
N2 N Uiso -0.04408 0.34634 0.57652 1.000 0.0500
N3 N Uiso 0.00073 0.10733 1.13136 1.000 0.0500
N4 N Uiso 0.14908 0.97084 0.45557 1.000 0.0500
C1 C Uiso 0.06375 0.32944 0.70200 1.000 0.0500
C2 C Uiso 0.08043 0.24714 0.88633 1.000 0.0500
C3 C Uiso 0.17358 0.46208 0.92104 1.000 0.0500
C4 C Uiso 0.15480 0.55165 0.73117 1.000 0.0500
C5 C Uiso 0.17457 0.72421 0.73055 1.000 0.0500
C6 C Uiso 0.00386 0.33155 0.63478 1.000 0.0500
C7 C Uiso 0.03754 0.16377 1.02187 1.000 0.0500
C8 C Uiso 0.16164 0.85957 0.57718 1.000 0.0500
loop_
_atom_type_symbol
_atom_type_description
_atom_type_scat_dispersion_real
_atom_type_scat_dispersion_imag
_atom_type_scat_source
C C 0.0033 0.0016 ' International Tables Vol C Tables 4.2.6.8 and 6.1.1.4'
N N 0.0061 0.0033 ' International Tables Vol C Tables 4.2.6.8 and 6.1.1.4'
S S 0.1246 0.1234 ' International Tables Vol C Tables 4.2.6.8 and 6.1.1.4'
loop_
_geom_angle_atom_site_label_1
_geom_angle_atom_site_label_2
_geom_angle_atom_site_label_3
_geom_angle
_geom_angle_publ_flag
C1 S1 C4 99.81 yes
C2 S2 C3 99.82 yes
N1 S3 C5 96.43 yes
S3 N1 C3 107.57 yes
S1 C1 C2 124.17 yes
S1 C1 C6 114.42 yes
C2 C1 C6 121.32 no
S2 C2 C1 123.84 yes
S2 C2 C7 116.25 yes
C1 C2 C7 119.85 no
S2 C3 N1 120.08 yes
S2 C3 C4 122.62 yes
N1 C3 C4 117.29 yes
S1 C4 C3 122.86 yes
S1 C4 C5 126.61 yes
C3 C4 C5 110.50 no
S3 C5 C4 108.13 yes
S3 C5 C8 124.31 yes
C4 C5 C8 127.51 no
N2 C6 C1 174.97 yes
N3 C7 C2 175.27 yes
N4 C8 C5 177.46 yes
loop_
_geom_bond_atom_site_label_1
_geom_bond_atom_site_label_2
_geom_bond_distance
_geom_bond_publ_flag
S1 C1 1.7549 yes
S1 C4 1.7526 yes
S2 C2 1.7604 yes
S2 C3 1.7557 yes
S3 N1 1.6652 yes
S3 C5 1.7091 yes
N1 C3 1.3297 yes
N2 C6 1.1633 yes
N3 C7 1.1633 yes
N4 C8 1.1622 yes
C1 C2 1.3530 no
C1 C6 1.4363 no
C2 C7 1.4374 no
C3 C4 1.4213 no
C4 C5 1.3761 no
C5 C8 1.4236 no
loop_
_geom_torsion_atom_site_label_1
_geom_torsion_atom_site_label_2
_geom_torsion_atom_site_label_3
_geom_torsion_atom_site_label_4
_geom_torsion
_geom_torsion_publ_flag
C1 S1 C4 C5 -138.81 no
C4 S1 C1 C2 -37.69 no
C4 S1 C1 C6 138.91 no
C1 S1 C4 C3 39.30 no
C3 S2 C2 C1 39.92 no
C3 S2 C2 C7 -137.00 no
C2 S2 C3 N1 142.31 no
C2 S2 C3 C4 -37.01 no
C5 S3 N1 C3 -0.29 no
N1 S3 C5 C8 176.41 no
N1 S3 C5 C4 -1.39 no
S3 N1 C3 C4 1.96 no
S3 N1 C3 S2 -177.39 no
C6 C1 C2 C7 -1.69 no
S1 C1 C2 C7 174.69 no
C6 C1 C2 S2 -178.51 no
S1 C1 C2 S2 -2.13 no
S2 C3 C4 S1 -2.13 no
S2 C3 C4 C5 176.25 no
N1 C3 C4 C5 -3.09 no
N1 C3 C4 S1 178.54 no
S1 C4 C5 S3 -179.14 no
C3 C4 C5 C8 -175.14 no
S1 C4 C5 C8 3.16 no
C3 C4 C5 S3 2.57 no
