#------------------------------------------------------------------------------
#$Date: 2023-12-05 10:34:00 +0200 (Tue, 05 Dec 2023) $
#$Revision: 288031 $
#$URL: file:///home/coder/svn-repositories/cod/cif/2/10/77/2107797.cif $
#------------------------------------------------------------------------------
#
# This file is available in the Crystallography Open Database (COD),
# http://www.crystallography.net/. The original data for this entry
# were provided by IUCr Journals, http://journals.iucr.org/.
#
# The file may be used within the scientific community so long as
# proper attribution is given to the journal article from which the
# data were obtained.
#
data_2107797
loop_
_publ_author_name
'Reilly, Anthony M.'
'Cooper, Richard I.'
'Adjiman, Claire S.'
'Bhattacharya, Saswata'
'Boese, A. Daniel'
'Brandenburg, Jan Gerit'
'Bygrave, Peter J.'
'Bylsma, Rita'
'Campbell, Josh E.'
'Car, Roberto'
'Case, David H.'
'Chadha, Renu'
'Cole, Jason C.'
'Cosburn, Katherine'
'Cuppen, Herma M.'
'Curtis, Farren'
'Day, Graeme M.'
'DiStasio Jr, Robert A.'
'Dzyabchenko, Alexander'
'van Eijck, Bouke P.'
'Elking, Dennis M.'
'van den Ende, Joost A.'
'Facelli, Julio C.'
'Ferraro, Marta B.'
'Fusti-Molnar, Laszlo'
'Gatsiou, Christina-Anna'
'Gee, Thomas S.'
'de Gelder, Ren\'e'
'Ghiringhelli, Luca M.'
'Goto, Hitoshi'
'Grimme, Stefan'
'Guo, Rui'
'Hofmann, Detlef W. M.'
'Hoja, Johannes'
'Hylton, Rebecca K.'
'Iuzzolino, Luca'
'Jankiewicz, Wojciech'
'de Jong, Dani\"el T.'
'Kendrick, John'
'de Klerk, Niek J. J.'
'Ko, Hsin-Yu'
'Kuleshova, Liudmila N.'
'Li, Xiayue'
'Lohani, Sanjaya'
'Leusen, Frank J. J.'
'Lund, Albert M.'
'Lv, Jian'
'Ma, Yanming'
'Marom, Noa'
'Masunov, Art\"em E.'
'McCabe, Patrick'
'McMahon, David P.'
'Meekes, Hugo'
'Metz, Michael P.'
'Misquitta, Alston J.'
'Mohamed, Sharmarke'
'Monserrat, Bartomeu'
'Needs, Richard J.'
'Neumann, Marcus A.'
'Nyman, Jonas'
'Obata, Shigeaki'
'Oberhofer, Harald'
'Oganov, Artem R.'
'Orendt, Anita M.'
'Pagola, Gabriel I.'
'Pantelides, Constantinos C.'
'Pickard, Chris J.'
'Podeszwa, Rafal'
'Price, Louise S.'
'Price, Sarah L.'
'Pulido, Angeles'
'Read, Murray G.'
'Reuter, Karsten'
'Schneider, Elia'
'Schober, Christoph'
'Shields, Gregory P.'
'Singh, Pawanpreet'
'Sugden, Isaac J.'
'Szalewicz, Krzysztof'
'Taylor, Christopher R.'
'Tkatchenko, Alexandre'
'Tuckerman, Mark E.'
'Vacarro, Francesca'
'Vasileiadis, Manolis'
'Vazquez-Mayagoitia, Alvaro'
'Vogt, Leslie'
'Wang, Yanchao'
'Watson, Rona E.'
'de Wijs, Gilles A.'
'Yang, Jack'
'Zhu, Qiang'
'Groom, Colin R.'
_publ_section_title
;
 Report on the sixth blind test of organic crystal structure prediction
 methods
;
_journal_issue                   4
_journal_name_full               'Acta Crystallographica Section B'
_journal_page_first              439
_journal_page_last               459
_journal_paper_doi               10.1107/S2052520616007447
_journal_volume                  72
_journal_year                    2016
_chemical_compound_source        'see text'
_chemical_formula_moiety         'C8 N4 S3'
_chemical_formula_sum            'C8 N4 S3'
_chemical_formula_weight         248.33
_space_group_IT_number           14
_symmetry_cell_setting           monoclinic
_symmetry_Int_Tables_number      14
_symmetry_space_group_name_Hall  '-P 2ybc'
_symmetry_space_group_name_H-M   'P 1 21/c 1'
_atom_sites_solution_hydrogens   ' .'
_atom_sites_solution_primary     ' ?'
_atom_sites_solution_secondary   ' ?'
_cell_angle_alpha                90
_cell_angle_beta                 122.9890
_cell_angle_gamma                90
_cell_formula_units_Z            4
_cell_length_a                   6.15260
_cell_length_b                   20.13180
_cell_length_c                   10.89680
_cell_volume                     1132.103
_computing_publication_material  'PLATON (Spek, 2003)'
_diffrn_radiation_probe          x-ray
_diffrn_radiation_type           MoK\a
_diffrn_radiation_wavelength     0.71073
_diffrn_reflns_reduction_process
;
;
_exptl_absorpt_coefficient_mu    0.624
_exptl_absorpt_correction_type   ' ?'
_exptl_crystal_colour            ' ?'
_exptl_crystal_density_diffrn    1.457
_exptl_crystal_density_method    'Not Measured'
_exptl_crystal_description       ' ?'
_exptl_crystal_F_000             496
_refine_ls_extinction_method     ' ?'
_refine_ls_hydrogen_treatment    ' .'
_refine_ls_number_restraints     0
_refine_ls_weighting_scheme      ?
_iucr_refine_instructions_details
;
;
_cod_data_source_file            XXII-1_Goto_Obata.cif
_cod_data_source_block           XXII_R057
_cod_original_sg_symbol_H-M      'P 21/c'
_cod_struct_determination_method theoretical
_cod_database_code               2107797
loop_
_symmetry_equiv_pos_site_id
_symmetry_equiv_pos_as_xyz
1 x,y,z
2 -x,1/2+y,1/2-z
3 -x,-y,-z
4 x,1/2-y,1/2+z
loop_
_atom_site_label
_atom_site_type_symbol
_atom_site_thermal_displace_type
_atom_site_fract_x
_atom_site_fract_y
_atom_site_fract_z
_atom_site_occupancy
_atom_site_U_iso_or_equiv
S1 S Uiso 0.69632 0.14026 0.37064 1.000 0.0500
S2 S Uiso 1.10041 0.03047 0.36072 1.000 0.0500
S3 S Uiso 1.49256 0.16448 0.69735 1.000 0.0500
N1 N Uiso 1.45455 0.10069 0.59112 1.000 0.0500
N2 N Uiso 0.27915 0.15943 -0.03032 1.000 0.0500
N3 N Uiso 0.71698 0.02632 -0.04747 1.000 0.0500
N4 N Uiso 0.99816 0.28316 0.68228 1.000 0.0500
C1 C Uiso 0.66581 0.10995 0.21127 1.000 0.0500
C2 C Uiso 0.82915 0.06622 0.20753 1.000 0.0500
C3 C Uiso 1.20350 0.09467 0.48908 1.000 0.0500
C4 C Uiso 1.03325 0.14081 0.49359 1.000 0.0500
C5 C Uiso 1.17153 0.18428 0.60870 1.000 0.0500
C6 C Uiso 0.44883 0.13607 0.07722 1.000 0.0500
C7 C Uiso 0.77791 0.04437 0.06848 1.000 0.0500
C8 C Uiso 1.07549 0.23806 0.65043 1.000 0.0500
loop_
_atom_type_symbol
_atom_type_description
_atom_type_scat_dispersion_real
_atom_type_scat_dispersion_imag
_atom_type_scat_source
C C 0.0033 0.0016 ' International Tables Vol C Tables 4.2.6.8 and 6.1.1.4'
N N 0.0061 0.0033 ' International Tables Vol C Tables 4.2.6.8 and 6.1.1.4'
S S 0.1246 0.1234 ' International Tables Vol C Tables 4.2.6.8 and 6.1.1.4'
loop_
_geom_angle_atom_site_label_1
_geom_angle_atom_site_label_2
_geom_angle_atom_site_label_3
_geom_angle
_geom_angle_publ_flag
C1 S1 C4 101.76 yes
C2 S2 C3 101.61 yes
N1 S3 C5 96.08 yes
S3 N1 C3 108.22 yes
S1 C1 C2 125.17 yes
S1 C1 C6 114.75 yes
C2 C1 C6 120.07 no
S2 C2 C1 125.28 yes
S2 C2 C7 115.32 yes
C1 C2 C7 119.36 no
S2 C3 N1 119.10 yes
S2 C3 C4 123.87 yes
N1 C3 C4 117.02 yes
S1 C4 C3 123.86 yes
S1 C4 C5 125.94 yes
C3 C4 C5 110.19 no
S3 C5 C4 108.50 yes
S3 C5 C8 123.44 yes
C4 C5 C8 128.05 no
N2 C6 C1 177.29 yes
N3 C7 C2 174.85 yes
N4 C8 C5 178.17 yes
loop_
_geom_bond_atom_site_label_1
_geom_bond_atom_site_label_2
_geom_bond_distance
_geom_bond_publ_flag
S1 C1 1.7517 yes
S1 C4 1.7516 yes
S2 C2 1.7482 yes
S2 C3 1.7502 yes
S3 N1 1.6580 yes
S3 C5 1.7075 yes
N1 C3 1.3291 yes
N2 C6 1.1628 yes
N3 C7 1.1633 yes
N4 C8 1.1623 yes
C1 C2 1.3532 no
C1 C6 1.4384 no
C2 C7 1.4382 no
C3 C4 1.4207 no
C4 C5 1.3787 no
C5 C8 1.4215 no
loop_
_geom_torsion_atom_site_label_1
_geom_torsion_atom_site_label_2
_geom_torsion_atom_site_label_3
_geom_torsion_atom_site_label_4
_geom_torsion
_geom_torsion_publ_flag
C1 S1 C4 C5 149.56 no
C4 S1 C1 C2 31.91 no
C4 S1 C1 C6 -147.12 no
C1 S1 C4 C3 -31.57 no
C3 S2 C2 C1 -33.24 no
C3 S2 C2 C7 148.87 no
C2 S2 C3 N1 -149.02 no
C2 S2 C3 C4 32.39 no
C5 S3 N1 C3 0.61 no
N1 S3 C5 C8 -179.58 no
N1 S3 C5 C4 -0.62 no
S3 N1 C3 C4 -0.46 no
S3 N1 C3 S2 -179.15 no
C6 C1 C2 C7 -2.32 no
S1 C1 C2 C7 178.70 no
C6 C1 C2 S2 179.87 no
S1 C1 C2 S2 0.89 no
S2 C3 C4 S1 -0.40 no
S2 C3 C4 C5 178.63 no
N1 C3 C4 C5 0.02 no
N1 C3 C4 S1 -179.01 no
S1 C4 C5 S3 179.44 no
C3 C4 C5 C8 179.33 no
S1 C4 C5 C8 -1.67 no
C3 C4 C5 S3 0.44 no
