#------------------------------------------------------------------------------
#$Date: 2023-12-05 10:34:00 +0200 (Tue, 05 Dec 2023) $
#$Revision: 288031 $
#$URL: file:///home/coder/svn-repositories/cod/cif/2/10/77/2107761.cif $
#------------------------------------------------------------------------------
#
# This file is available in the Crystallography Open Database (COD),
# http://www.crystallography.net/. The original data for this entry
# were provided by IUCr Journals, http://journals.iucr.org/.
#
# The file may be used within the scientific community so long as
# proper attribution is given to the journal article from which the
# data were obtained.
#
data_2107761
loop_
_publ_author_name
'Reilly, Anthony M.'
'Cooper, Richard I.'
'Adjiman, Claire S.'
'Bhattacharya, Saswata'
'Boese, A. Daniel'
'Brandenburg, Jan Gerit'
'Bygrave, Peter J.'
'Bylsma, Rita'
'Campbell, Josh E.'
'Car, Roberto'
'Case, David H.'
'Chadha, Renu'
'Cole, Jason C.'
'Cosburn, Katherine'
'Cuppen, Herma M.'
'Curtis, Farren'
'Day, Graeme M.'
'DiStasio Jr, Robert A.'
'Dzyabchenko, Alexander'
'van Eijck, Bouke P.'
'Elking, Dennis M.'
'van den Ende, Joost A.'
'Facelli, Julio C.'
'Ferraro, Marta B.'
'Fusti-Molnar, Laszlo'
'Gatsiou, Christina-Anna'
'Gee, Thomas S.'
'de Gelder, Ren\'e'
'Ghiringhelli, Luca M.'
'Goto, Hitoshi'
'Grimme, Stefan'
'Guo, Rui'
'Hofmann, Detlef W. M.'
'Hoja, Johannes'
'Hylton, Rebecca K.'
'Iuzzolino, Luca'
'Jankiewicz, Wojciech'
'de Jong, Dani\"el T.'
'Kendrick, John'
'de Klerk, Niek J. J.'
'Ko, Hsin-Yu'
'Kuleshova, Liudmila N.'
'Li, Xiayue'
'Lohani, Sanjaya'
'Leusen, Frank J. J.'
'Lund, Albert M.'
'Lv, Jian'
'Ma, Yanming'
'Marom, Noa'
'Masunov, Art\"em E.'
'McCabe, Patrick'
'McMahon, David P.'
'Meekes, Hugo'
'Metz, Michael P.'
'Misquitta, Alston J.'
'Mohamed, Sharmarke'
'Monserrat, Bartomeu'
'Needs, Richard J.'
'Neumann, Marcus A.'
'Nyman, Jonas'
'Obata, Shigeaki'
'Oberhofer, Harald'
'Oganov, Artem R.'
'Orendt, Anita M.'
'Pagola, Gabriel I.'
'Pantelides, Constantinos C.'
'Pickard, Chris J.'
'Podeszwa, Rafal'
'Price, Louise S.'
'Price, Sarah L.'
'Pulido, Angeles'
'Read, Murray G.'
'Reuter, Karsten'
'Schneider, Elia'
'Schober, Christoph'
'Shields, Gregory P.'
'Singh, Pawanpreet'
'Sugden, Isaac J.'
'Szalewicz, Krzysztof'
'Taylor, Christopher R.'
'Tkatchenko, Alexandre'
'Tuckerman, Mark E.'
'Vacarro, Francesca'
'Vasileiadis, Manolis'
'Vazquez-Mayagoitia, Alvaro'
'Vogt, Leslie'
'Wang, Yanchao'
'Watson, Rona E.'
'de Wijs, Gilles A.'
'Yang, Jack'
'Zhu, Qiang'
'Groom, Colin R.'
_publ_section_title
;
 Report on the sixth blind test of organic crystal structure prediction
 methods
;
_journal_issue                   4
_journal_name_full               'Acta Crystallographica Section B'
_journal_page_first              439
_journal_page_last               459
_journal_paper_doi               10.1107/S2052520616007447
_journal_volume                  72
_journal_year                    2016
_chemical_compound_source        'see text'
_chemical_formula_moiety         'C8 N4 S3'
_chemical_formula_sum            'C8 N4 S3'
_chemical_formula_weight         248.33
_space_group_IT_number           4
_symmetry_cell_setting           monoclinic
_symmetry_Int_Tables_number      4
_symmetry_space_group_name_Hall  'P 2yb'
_symmetry_space_group_name_H-M   'P 1 21 1'
_atom_sites_solution_hydrogens   ' .'
_atom_sites_solution_primary     ' ?'
_atom_sites_solution_secondary   ' ?'
_cell_angle_alpha                90
_cell_angle_beta                 96.1130
_cell_angle_gamma                90
_cell_formula_units_Z            2
_cell_length_a                   8.64860
_cell_length_b                   6.43100
_cell_length_c                   10.08370
_cell_volume                     557.658
_computing_publication_material  'PLATON (Spek, 2003)'
_diffrn_radiation_probe          x-ray
_diffrn_radiation_type           MoK\a
_diffrn_radiation_wavelength     0.71073
_diffrn_reflns_reduction_process
;
;
_exptl_absorpt_coefficient_mu    0.634
_exptl_absorpt_correction_type   ' ?'
_exptl_crystal_colour            ' ?'
_exptl_crystal_density_diffrn    1.479
_exptl_crystal_density_method    'Not Measured'
_exptl_crystal_description       ' ?'
_exptl_crystal_F_000             248
_refine_ls_abs_structure_details 'Flack (1983)'
_refine_ls_extinction_method     ' ?'
_refine_ls_hydrogen_treatment    ' .'
_refine_ls_number_restraints     0
_refine_ls_weighting_scheme      ?
_iucr_refine_instructions_details
;
;
_cod_data_source_file            XXII-1_Goto_Obata.cif
_cod_data_source_block           XXII_R021
_cod_original_sg_symbol_H-M      'P 21'
_cod_struct_determination_method theoretical
_cod_database_code               2107761
loop_
_symmetry_equiv_pos_site_id
_symmetry_equiv_pos_as_xyz
1 x,y,z
2 -x,1/2+y,-z
loop_
_atom_site_label
_atom_site_type_symbol
_atom_site_thermal_displace_type
_atom_site_fract_x
_atom_site_fract_y
_atom_site_fract_z
_atom_site_occupancy
_atom_site_U_iso_or_equiv
S1 S Uiso 0.57852 0.23512 0.22441 1.000 0.0500
S2 S Uiso 0.61493 0.64927 0.43145 1.000 0.0500
S3 S Uiso 0.23692 0.70310 0.14887 1.000 0.0500
N1 N Uiso 0.36309 0.77383 0.27671 1.000 0.0500
N2 N Uiso 0.99985 0.19206 0.19798 1.000 0.0500
N3 N Uiso 1.04753 0.64411 0.45252 1.000 0.0500
N4 N Uiso 0.23582 0.22055 -0.07408 1.000 0.0500
C1 C Uiso 0.75440 0.35180 0.28612 1.000 0.0500
C2 C Uiso 0.76891 0.51630 0.37011 1.000 0.0500
C3 C Uiso 0.46763 0.62290 0.29925 1.000 0.0500
C4 C Uiso 0.45170 0.44803 0.21276 1.000 0.0500
C5 C Uiso 0.32328 0.47093 0.12041 1.000 0.0500
C6 C Uiso 0.89048 0.26054 0.23970 1.000 0.0500
C7 C Uiso 0.92144 0.59157 0.41639 1.000 0.0500
C8 C Uiso 0.27032 0.33224 0.01492 1.000 0.0500
loop_
_atom_type_symbol
_atom_type_description
_atom_type_scat_dispersion_real
_atom_type_scat_dispersion_imag
_atom_type_scat_source
C C 0.0033 0.0016 ' International Tables Vol C Tables 4.2.6.8 and 6.1.1.4'
N N 0.0061 0.0033 ' International Tables Vol C Tables 4.2.6.8 and 6.1.1.4'
S S 0.1246 0.1234 ' International Tables Vol C Tables 4.2.6.8 and 6.1.1.4'
loop_
_geom_angle_atom_site_label_1
_geom_angle_atom_site_label_2
_geom_angle_atom_site_label_3
_geom_angle
_geom_angle_publ_flag
C1 S1 C4 101.72 yes
C2 S2 C3 101.71 yes
N1 S3 C5 96.14 yes
S3 N1 C3 108.14 yes
S1 C1 C2 125.25 yes
S1 C1 C6 114.83 yes
C2 C1 C6 119.91 no
S2 C2 C1 125.46 yes
S2 C2 C7 115.33 yes
C1 C2 C7 119.21 no
S2 C3 N1 119.06 yes
S2 C3 C4 123.99 yes
N1 C3 C4 116.95 yes
S1 C4 C3 123.97 yes
S1 C4 C5 125.63 yes
C3 C4 C5 110.39 no
S3 C5 C4 108.37 yes
S3 C5 C8 124.12 yes
C4 C5 C8 127.48 no
N2 C6 C1 177.33 yes
N3 C7 C2 177.01 yes
N4 C8 C5 175.85 yes
loop_
_geom_bond_atom_site_label_1
_geom_bond_atom_site_label_2
_geom_bond_distance
_geom_bond_publ_flag
S1 C1 1.7500 yes
S1 C4 1.7505 yes
S2 C2 1.7501 yes
S2 C3 1.7513 yes
S3 N1 1.6613 yes
S3 C5 1.7074 yes
N1 C3 1.3295 yes
N2 C6 1.1621 yes
N3 C7 1.1625 yes
N4 C8 1.1633 yes
C1 C2 1.3526 no
C1 C6 1.4373 no
C2 C7 1.4357 no
C3 C4 1.4208 no
C4 C5 1.3792 no
C5 C8 1.4259 no
loop_
_geom_torsion_atom_site_label_1
_geom_torsion_atom_site_label_2
_geom_torsion_atom_site_label_3
_geom_torsion_atom_site_label_4
_geom_torsion
_geom_torsion_publ_flag
C1 S1 C4 C5 149.11 no
C4 S1 C1 C2 32.90 no
C4 S1 C1 C6 -146.52 no
C1 S1 C4 C3 -31.14 no
C3 S2 C2 C1 -31.30 no
C3 S2 C2 C7 149.42 no
C2 S2 C3 N1 -148.15 no
C2 S2 C3 C4 31.88 no
C5 S3 N1 C3 -1.02 no
N1 S3 C5 C8 -177.70 no
N1 S3 C5 C4 0.44 no
S3 N1 C3 C4 1.37 no
S3 N1 C3 S2 -178.60 no
C6 C1 C2 C7 -2.75 no
S1 C1 C2 C7 177.86 no
C6 C1 C2 S2 178.00 no
S1 C1 C2 S2 -1.39 no
S2 C3 C4 S1 -0.89 no
S2 C3 C4 C5 178.89 no
N1 C3 C4 C5 -1.08 no
N1 C3 C4 S1 179.14 no
S1 C4 C5 S3 -180.00 no
C3 C4 C5 C8 178.29 no
S1 C4 C5 C8 -1.93 no
C3 C4 C5 S3 0.24 no
