#------------------------------------------------------------------------------
#$Date: 2023-12-05 10:34:00 +0200 (Tue, 05 Dec 2023) $
#$Revision: 288031 $
#$URL: file:///home/coder/svn-repositories/cod/cif/2/10/78/2107806.cif $
#------------------------------------------------------------------------------
#
# This file is available in the Crystallography Open Database (COD),
# http://www.crystallography.net/. The original data for this entry
# were provided by IUCr Journals, http://journals.iucr.org/.
#
# The file may be used within the scientific community so long as
# proper attribution is given to the journal article from which the
# data were obtained.
#
data_2107806
loop_
_publ_author_name
'Reilly, Anthony M.'
'Cooper, Richard I.'
'Adjiman, Claire S.'
'Bhattacharya, Saswata'
'Boese, A. Daniel'
'Brandenburg, Jan Gerit'
'Bygrave, Peter J.'
'Bylsma, Rita'
'Campbell, Josh E.'
'Car, Roberto'
'Case, David H.'
'Chadha, Renu'
'Cole, Jason C.'
'Cosburn, Katherine'
'Cuppen, Herma M.'
'Curtis, Farren'
'Day, Graeme M.'
'DiStasio Jr, Robert A.'
'Dzyabchenko, Alexander'
'van Eijck, Bouke P.'
'Elking, Dennis M.'
'van den Ende, Joost A.'
'Facelli, Julio C.'
'Ferraro, Marta B.'
'Fusti-Molnar, Laszlo'
'Gatsiou, Christina-Anna'
'Gee, Thomas S.'
'de Gelder, Ren\'e'
'Ghiringhelli, Luca M.'
'Goto, Hitoshi'
'Grimme, Stefan'
'Guo, Rui'
'Hofmann, Detlef W. M.'
'Hoja, Johannes'
'Hylton, Rebecca K.'
'Iuzzolino, Luca'
'Jankiewicz, Wojciech'
'de Jong, Dani\"el T.'
'Kendrick, John'
'de Klerk, Niek J. J.'
'Ko, Hsin-Yu'
'Kuleshova, Liudmila N.'
'Li, Xiayue'
'Lohani, Sanjaya'
'Leusen, Frank J. J.'
'Lund, Albert M.'
'Lv, Jian'
'Ma, Yanming'
'Marom, Noa'
'Masunov, Art\"em E.'
'McCabe, Patrick'
'McMahon, David P.'
'Meekes, Hugo'
'Metz, Michael P.'
'Misquitta, Alston J.'
'Mohamed, Sharmarke'
'Monserrat, Bartomeu'
'Needs, Richard J.'
'Neumann, Marcus A.'
'Nyman, Jonas'
'Obata, Shigeaki'
'Oberhofer, Harald'
'Oganov, Artem R.'
'Orendt, Anita M.'
'Pagola, Gabriel I.'
'Pantelides, Constantinos C.'
'Pickard, Chris J.'
'Podeszwa, Rafal'
'Price, Louise S.'
'Price, Sarah L.'
'Pulido, Angeles'
'Read, Murray G.'
'Reuter, Karsten'
'Schneider, Elia'
'Schober, Christoph'
'Shields, Gregory P.'
'Singh, Pawanpreet'
'Sugden, Isaac J.'
'Szalewicz, Krzysztof'
'Taylor, Christopher R.'
'Tkatchenko, Alexandre'
'Tuckerman, Mark E.'
'Vacarro, Francesca'
'Vasileiadis, Manolis'
'Vazquez-Mayagoitia, Alvaro'
'Vogt, Leslie'
'Wang, Yanchao'
'Watson, Rona E.'
'de Wijs, Gilles A.'
'Yang, Jack'
'Zhu, Qiang'
'Groom, Colin R.'
_publ_section_title
;
 Report on the sixth blind test of organic crystal structure prediction
 methods
;
_journal_issue                   4
_journal_name_full               'Acta Crystallographica Section B'
_journal_page_first              439
_journal_page_last               459
_journal_paper_doi               10.1107/S2052520616007447
_journal_volume                  72
_journal_year                    2016
_chemical_compound_source        'see text'
_chemical_formula_moiety         'C8 N4 S3'
_chemical_formula_sum            'C8 N4 S3'
_chemical_formula_weight         248.33
_space_group_IT_number           19
_symmetry_cell_setting           orthorhombic
_symmetry_Int_Tables_number      19
_symmetry_space_group_name_Hall  'P 2ac 2ab'
_symmetry_space_group_name_H-M   'P 21 21 21'
_atom_sites_solution_hydrogens   ' .'
_atom_sites_solution_primary     ' ?'
_atom_sites_solution_secondary   ' ?'
_cell_angle_alpha                90
_cell_angle_beta                 90
_cell_angle_gamma                90
_cell_formula_units_Z            4
_cell_length_a                   6.78810
_cell_length_b                   8.30590
_cell_length_c                   19.84410
_cell_volume                     1118.836
_computing_publication_material  'PLATON (Spek, 2003)'
_diffrn_radiation_probe          x-ray
_diffrn_radiation_type           MoK\a
_diffrn_radiation_wavelength     0.71073
_diffrn_reflns_reduction_process
;
;
_exptl_absorpt_coefficient_mu    0.632
_exptl_absorpt_correction_type   ' ?'
_exptl_crystal_colour            ' ?'
_exptl_crystal_density_diffrn    1.474
_exptl_crystal_density_method    'Not Measured'
_exptl_crystal_description       ' ?'
_exptl_crystal_F_000             496
_refine_ls_abs_structure_details 'Flack (1983)'
_refine_ls_extinction_method     ' ?'
_refine_ls_hydrogen_treatment    ' .'
_refine_ls_number_restraints     0
_refine_ls_weighting_scheme      ?
_iucr_refine_instructions_details
;
;
_cod_data_source_file            XXII-1_Goto_Obata.cif
_cod_data_source_block           XXII_R066
_cod_struct_determination_method theoretical
_cod_database_code               2107806
loop_
_symmetry_equiv_pos_site_id
_symmetry_equiv_pos_as_xyz
1 x,y,z
2 1/2-x,-y,1/2+z
3 1/2+x,1/2-y,-z
4 -x,1/2+y,1/2-z
loop_
_atom_site_label
_atom_site_type_symbol
_atom_site_thermal_displace_type
_atom_site_fract_x
_atom_site_fract_y
_atom_site_fract_z
_atom_site_occupancy
_atom_site_U_iso_or_equiv
S1 S Uiso 0.39931 0.27972 0.38905 1.000 0.0500
S2 S Uiso -0.04090 0.45636 0.40563 1.000 0.0500
S3 S Uiso -0.07199 -0.03247 0.43753 1.000 0.0500
N1 N Uiso -0.15276 0.15556 0.43334 1.000 0.0500
N2 N Uiso 0.55348 0.51993 0.24225 1.000 0.0500
N3 N Uiso 0.02631 0.73169 0.26116 1.000 0.0500
N4 N Uiso 0.43123 -0.21476 0.41527 1.000 0.0500
C1 C Uiso 0.30862 0.42934 0.33531 1.000 0.0500
C2 C Uiso 0.13016 0.50020 0.34174 1.000 0.0500
C3 C Uiso -0.00228 0.24911 0.41596 1.000 0.0500
C4 C Uiso 0.18419 0.17375 0.40833 1.000 0.0500
C5 C Uiso 0.16849 0.01054 0.41949 1.000 0.0500
C6 C Uiso 0.44227 0.47851 0.28324 1.000 0.0500
C7 C Uiso 0.07153 0.62544 0.29604 1.000 0.0500
C8 C Uiso 0.31795 -0.10969 0.41684 1.000 0.0500
loop_
_atom_type_symbol
_atom_type_description
_atom_type_scat_dispersion_real
_atom_type_scat_dispersion_imag
_atom_type_scat_source
C C 0.0033 0.0016 ' International Tables Vol C Tables 4.2.6.8 and 6.1.1.4'
N N 0.0061 0.0033 ' International Tables Vol C Tables 4.2.6.8 and 6.1.1.4'
S S 0.1246 0.1234 ' International Tables Vol C Tables 4.2.6.8 and 6.1.1.4'
loop_
_geom_angle_atom_site_label_1
_geom_angle_atom_site_label_2
_geom_angle_atom_site_label_3
_geom_angle
_geom_angle_publ_flag
C1 S1 C4 101.37 yes
C2 S2 C3 100.89 yes
N1 S3 C5 96.23 yes
S3 N1 C3 108.04 yes
S1 C1 C2 124.52 yes
S1 C1 C6 114.76 yes
C2 C1 C6 120.69 no
S2 C2 C1 124.72 yes
S2 C2 C7 114.99 yes
C1 C2 C7 120.24 no
S2 C3 N1 119.31 yes
S2 C3 C4 123.61 yes
N1 C3 C4 117.07 yes
S1 C4 C3 123.10 yes
S1 C4 C5 126.55 yes
C3 C4 C5 110.34 no
S3 C5 C4 108.26 yes
S3 C5 C8 122.78 yes
C4 C5 C8 128.96 no
N2 C6 C1 178.34 yes
N3 C7 C2 177.03 yes
N4 C8 C5 175.89 yes
loop_
_geom_bond_atom_site_label_1
_geom_bond_atom_site_label_2
_geom_bond_distance
_geom_bond_publ_flag
S1 C1 1.7495 yes
S1 C4 1.7474 yes
S2 C2 1.7574 yes
S2 C3 1.7533 yes
S3 N1 1.6573 yes
S3 C5 1.7089 yes
N1 C3 1.3290 yes
N2 C6 1.1618 yes
N3 C7 1.1628 yes
N4 C8 1.1636 yes
C1 C2 1.3528 no
C1 C6 1.4344 no
C2 C7 1.4363 no
C3 C4 1.4202 no
C4 C5 1.3777 no
C5 C8 1.4245 no
loop_
_geom_torsion_atom_site_label_1
_geom_torsion_atom_site_label_2
_geom_torsion_atom_site_label_3
_geom_torsion_atom_site_label_4
_geom_torsion
_geom_torsion_publ_flag
C1 S1 C4 C5 145.91 no
C4 S1 C1 C2 35.02 no
C4 S1 C1 C6 -147.05 no
C1 S1 C4 C3 -35.40 no
C3 S2 C2 C1 -35.43 no
C3 S2 C2 C7 147.01 no
C2 S2 C3 N1 -147.69 no
C2 S2 C3 C4 33.86 no
C5 S3 N1 C3 2.39 no
N1 S3 C5 C8 178.96 no
N1 S3 C5 C4 -1.58 no
S3 N1 C3 C4 -2.65 no
S3 N1 C3 S2 178.80 no
C6 C1 C2 C7 0.39 no
S1 C1 C2 C7 178.20 no
C6 C1 C2 S2 -177.05 no
S1 C1 C2 S2 0.76 no
S2 C3 C4 S1 1.14 no
S2 C3 C4 C5 -179.97 no
N1 C3 C4 C5 1.54 no
N1 C3 C4 S1 -177.34 no
S1 C4 C5 S3 179.17 no
C3 C4 C5 C8 179.75 no
S1 C4 C5 C8 -1.42 no
C3 C4 C5 S3 0.34 no
