#------------------------------------------------------------------------------
#$Date: 2023-12-05 10:34:00 +0200 (Tue, 05 Dec 2023) $
#$Revision: 288031 $
#$URL: file:///home/coder/svn-repositories/cod/cif/2/10/77/2107749.cif $
#------------------------------------------------------------------------------
#
# This file is available in the Crystallography Open Database (COD),
# http://www.crystallography.net/. The original data for this entry
# were provided by IUCr Journals, http://journals.iucr.org/.
#
# The file may be used within the scientific community so long as
# proper attribution is given to the journal article from which the
# data were obtained.
#
data_2107749
loop_
_publ_author_name
'Reilly, Anthony M.'
'Cooper, Richard I.'
'Adjiman, Claire S.'
'Bhattacharya, Saswata'
'Boese, A. Daniel'
'Brandenburg, Jan Gerit'
'Bygrave, Peter J.'
'Bylsma, Rita'
'Campbell, Josh E.'
'Car, Roberto'
'Case, David H.'
'Chadha, Renu'
'Cole, Jason C.'
'Cosburn, Katherine'
'Cuppen, Herma M.'
'Curtis, Farren'
'Day, Graeme M.'
'DiStasio Jr, Robert A.'
'Dzyabchenko, Alexander'
'van Eijck, Bouke P.'
'Elking, Dennis M.'
'van den Ende, Joost A.'
'Facelli, Julio C.'
'Ferraro, Marta B.'
'Fusti-Molnar, Laszlo'
'Gatsiou, Christina-Anna'
'Gee, Thomas S.'
'de Gelder, Ren\'e'
'Ghiringhelli, Luca M.'
'Goto, Hitoshi'
'Grimme, Stefan'
'Guo, Rui'
'Hofmann, Detlef W. M.'
'Hoja, Johannes'
'Hylton, Rebecca K.'
'Iuzzolino, Luca'
'Jankiewicz, Wojciech'
'de Jong, Dani\"el T.'
'Kendrick, John'
'de Klerk, Niek J. J.'
'Ko, Hsin-Yu'
'Kuleshova, Liudmila N.'
'Li, Xiayue'
'Lohani, Sanjaya'
'Leusen, Frank J. J.'
'Lund, Albert M.'
'Lv, Jian'
'Ma, Yanming'
'Marom, Noa'
'Masunov, Art\"em E.'
'McCabe, Patrick'
'McMahon, David P.'
'Meekes, Hugo'
'Metz, Michael P.'
'Misquitta, Alston J.'
'Mohamed, Sharmarke'
'Monserrat, Bartomeu'
'Needs, Richard J.'
'Neumann, Marcus A.'
'Nyman, Jonas'
'Obata, Shigeaki'
'Oberhofer, Harald'
'Oganov, Artem R.'
'Orendt, Anita M.'
'Pagola, Gabriel I.'
'Pantelides, Constantinos C.'
'Pickard, Chris J.'
'Podeszwa, Rafal'
'Price, Louise S.'
'Price, Sarah L.'
'Pulido, Angeles'
'Read, Murray G.'
'Reuter, Karsten'
'Schneider, Elia'
'Schober, Christoph'
'Shields, Gregory P.'
'Singh, Pawanpreet'
'Sugden, Isaac J.'
'Szalewicz, Krzysztof'
'Taylor, Christopher R.'
'Tkatchenko, Alexandre'
'Tuckerman, Mark E.'
'Vacarro, Francesca'
'Vasileiadis, Manolis'
'Vazquez-Mayagoitia, Alvaro'
'Vogt, Leslie'
'Wang, Yanchao'
'Watson, Rona E.'
'de Wijs, Gilles A.'
'Yang, Jack'
'Zhu, Qiang'
'Groom, Colin R.'
_publ_section_title
;
 Report on the sixth blind test of organic crystal structure prediction
 methods
;
_journal_issue                   4
_journal_name_full               'Acta Crystallographica Section B'
_journal_page_first              439
_journal_page_last               459
_journal_paper_doi               10.1107/S2052520616007447
_journal_volume                  72
_journal_year                    2016
_chemical_compound_source        'see text'
_chemical_formula_moiety         'C8 N4 S3'
_chemical_formula_sum            'C8 N4 S3'
_chemical_formula_weight         248.33
_space_group_IT_number           14
_symmetry_cell_setting           monoclinic
_symmetry_Int_Tables_number      14
_symmetry_space_group_name_Hall  '-P 2ybc'
_symmetry_space_group_name_H-M   'P 1 21/c 1'
_atom_sites_solution_hydrogens   ' .'
_atom_sites_solution_primary     ' ?'
_atom_sites_solution_secondary   ' ?'
_cell_angle_alpha                90
_cell_angle_beta                 100.2660
_cell_angle_gamma                90
_cell_formula_units_Z            4
_cell_length_a                   5.96280
_cell_length_b                   9.22410
_cell_length_c                   19.87840
_cell_volume                     1075.838
_computing_publication_material  'PLATON (Spek, 2003)'
_diffrn_radiation_probe          x-ray
_diffrn_radiation_type           MoK\a
_diffrn_radiation_wavelength     0.71073
_diffrn_reflns_reduction_process
;
;
_exptl_absorpt_coefficient_mu    0.657
_exptl_absorpt_correction_type   ' ?'
_exptl_crystal_colour            ' ?'
_exptl_crystal_density_diffrn    1.533
_exptl_crystal_density_method    'Not Measured'
_exptl_crystal_description       ' ?'
_exptl_crystal_F_000             496
_refine_ls_extinction_method     ' ?'
_refine_ls_hydrogen_treatment    ' .'
_refine_ls_number_restraints     0
_refine_ls_weighting_scheme      ?
_iucr_refine_instructions_details
;
;
_cod_data_source_file            XXII-1_Goto_Obata.cif
_cod_data_source_block           XXII_R009
_cod_original_sg_symbol_H-M      'P 21/c'
_cod_struct_determination_method theoretical
_cod_database_code               2107749
loop_
_symmetry_equiv_pos_site_id
_symmetry_equiv_pos_as_xyz
1 x,y,z
2 -x,1/2+y,1/2-z
3 -x,-y,-z
4 x,1/2-y,1/2+z
loop_
_atom_site_label
_atom_site_type_symbol
_atom_site_thermal_displace_type
_atom_site_fract_x
_atom_site_fract_y
_atom_site_fract_z
_atom_site_occupancy
_atom_site_U_iso_or_equiv
S1 S Uiso 0.35906 0.20780 0.09620 1.000 0.0500
S2 S Uiso 0.82873 0.41585 0.11418 1.000 0.0500
S3 S Uiso 0.62232 0.28193 -0.08475 1.000 0.0500
N1 N Uiso 0.78226 0.36734 -0.01988 1.000 0.0500
N2 N Uiso 0.54142 0.00222 0.25536 1.000 0.0500
N3 N Uiso 1.09463 0.24411 0.27822 1.000 0.0500
N4 N Uiso 0.11054 0.03314 -0.08793 1.000 0.0500
C1 C Uiso 0.58713 0.19893 0.16514 1.000 0.0500
C2 C Uiso 0.77662 0.28214 0.17213 1.000 0.0500
C3 C Uiso 0.69636 0.34125 0.03621 1.000 0.0500
C4 C Uiso 0.49734 0.25392 0.02862 1.000 0.0500
C5 C Uiso 0.43245 0.21170 -0.03855 1.000 0.0500
C6 C Uiso 0.56176 0.09244 0.21607 1.000 0.0500
C7 C Uiso 0.95275 0.26419 0.23093 1.000 0.0500
C8 C Uiso 0.24848 0.11865 -0.06661 1.000 0.0500
loop_
_atom_type_symbol
_atom_type_description
_atom_type_scat_dispersion_real
_atom_type_scat_dispersion_imag
_atom_type_scat_source
C C 0.0033 0.0016 ' International Tables Vol C Tables 4.2.6.8 and 6.1.1.4'
N N 0.0061 0.0033 ' International Tables Vol C Tables 4.2.6.8 and 6.1.1.4'
S S 0.1246 0.1234 ' International Tables Vol C Tables 4.2.6.8 and 6.1.1.4'
loop_
_geom_angle_atom_site_label_1
_geom_angle_atom_site_label_2
_geom_angle_atom_site_label_3
_geom_angle
_geom_angle_publ_flag
C1 S1 C4 101.87 yes
C2 S2 C3 101.57 yes
N1 S3 C5 96.11 yes
S3 N1 C3 108.17 yes
S1 C1 C2 124.86 yes
S1 C1 C6 114.72 yes
C2 C1 C6 120.41 no
S2 C2 C1 125.07 yes
S2 C2 C7 115.26 yes
C1 C2 C7 119.67 no
S2 C3 N1 119.42 yes
S2 C3 C4 123.62 yes
N1 C3 C4 116.95 yes
S1 C4 C3 123.76 yes
S1 C4 C5 125.86 yes
C3 C4 C5 110.38 no
S3 C5 C4 108.38 yes
S3 C5 C8 123.75 yes
C4 C5 C8 127.78 no
N2 C6 C1 177.36 yes
N3 C7 C2 177.45 yes
N4 C8 C5 174.33 yes
loop_
_geom_bond_atom_site_label_1
_geom_bond_atom_site_label_2
_geom_bond_distance
_geom_bond_publ_flag
S1 C1 1.7521 yes
S1 C4 1.7494 yes
S2 C2 1.7528 yes
S2 C3 1.7501 yes
S3 N1 1.6597 yes
S3 C5 1.7075 yes
N1 C3 1.3293 yes
N2 C6 1.1623 yes
N3 C7 1.1620 yes
N4 C8 1.1636 yes
C1 C2 1.3524 no
C1 C6 1.4378 no
C2 C7 1.4349 no
C3 C4 1.4199 no
C4 C5 1.3784 no
C5 C8 1.4259 no
loop_
_geom_torsion_atom_site_label_1
_geom_torsion_atom_site_label_2
_geom_torsion_atom_site_label_3
_geom_torsion_atom_site_label_4
_geom_torsion
_geom_torsion_publ_flag
C1 S1 C4 C5 147.48 no
C4 S1 C1 C2 32.64 no
C4 S1 C1 C6 -146.82 no
C1 S1 C4 C3 -32.21 no
C3 S2 C2 C1 -33.84 no
C3 S2 C2 C7 146.59 no
C2 S2 C3 N1 -147.55 no
C2 S2 C3 C4 33.14 no
C5 S3 N1 C3 1.10 no
N1 S3 C5 C8 -177.61 no
N1 S3 C5 C4 -0.91 no
S3 N1 C3 C4 -1.03 no
S3 N1 C3 S2 179.62 no
C6 C1 C2 C7 -0.25 no
S1 C1 C2 C7 -179.68 no
C6 C1 C2 S2 -179.81 no
S1 C1 C2 S2 0.76 no
S2 C3 C4 S1 -0.58 no
S2 C3 C4 C5 179.70 no
N1 C3 C4 C5 0.37 no
N1 C3 C4 S1 -179.91 no
S1 C4 C5 S3 -179.26 no
C3 C4 C5 C8 176.98 no
S1 C4 C5 C8 -2.73 no
C3 C4 C5 S3 0.46 no
