#------------------------------------------------------------------------------
#$Date: 2023-12-05 10:34:00 +0200 (Tue, 05 Dec 2023) $
#$Revision: 288031 $
#$URL: file:///home/coder/svn-repositories/cod/cif/2/10/77/2107770.cif $
#------------------------------------------------------------------------------
#
# This file is available in the Crystallography Open Database (COD),
# http://www.crystallography.net/. The original data for this entry
# were provided by IUCr Journals, http://journals.iucr.org/.
#
# The file may be used within the scientific community so long as
# proper attribution is given to the journal article from which the
# data were obtained.
#
data_2107770
loop_
_publ_author_name
'Reilly, Anthony M.'
'Cooper, Richard I.'
'Adjiman, Claire S.'
'Bhattacharya, Saswata'
'Boese, A. Daniel'
'Brandenburg, Jan Gerit'
'Bygrave, Peter J.'
'Bylsma, Rita'
'Campbell, Josh E.'
'Car, Roberto'
'Case, David H.'
'Chadha, Renu'
'Cole, Jason C.'
'Cosburn, Katherine'
'Cuppen, Herma M.'
'Curtis, Farren'
'Day, Graeme M.'
'DiStasio Jr, Robert A.'
'Dzyabchenko, Alexander'
'van Eijck, Bouke P.'
'Elking, Dennis M.'
'van den Ende, Joost A.'
'Facelli, Julio C.'
'Ferraro, Marta B.'
'Fusti-Molnar, Laszlo'
'Gatsiou, Christina-Anna'
'Gee, Thomas S.'
'de Gelder, Ren\'e'
'Ghiringhelli, Luca M.'
'Goto, Hitoshi'
'Grimme, Stefan'
'Guo, Rui'
'Hofmann, Detlef W. M.'
'Hoja, Johannes'
'Hylton, Rebecca K.'
'Iuzzolino, Luca'
'Jankiewicz, Wojciech'
'de Jong, Dani\"el T.'
'Kendrick, John'
'de Klerk, Niek J. J.'
'Ko, Hsin-Yu'
'Kuleshova, Liudmila N.'
'Li, Xiayue'
'Lohani, Sanjaya'
'Leusen, Frank J. J.'
'Lund, Albert M.'
'Lv, Jian'
'Ma, Yanming'
'Marom, Noa'
'Masunov, Art\"em E.'
'McCabe, Patrick'
'McMahon, David P.'
'Meekes, Hugo'
'Metz, Michael P.'
'Misquitta, Alston J.'
'Mohamed, Sharmarke'
'Monserrat, Bartomeu'
'Needs, Richard J.'
'Neumann, Marcus A.'
'Nyman, Jonas'
'Obata, Shigeaki'
'Oberhofer, Harald'
'Oganov, Artem R.'
'Orendt, Anita M.'
'Pagola, Gabriel I.'
'Pantelides, Constantinos C.'
'Pickard, Chris J.'
'Podeszwa, Rafal'
'Price, Louise S.'
'Price, Sarah L.'
'Pulido, Angeles'
'Read, Murray G.'
'Reuter, Karsten'
'Schneider, Elia'
'Schober, Christoph'
'Shields, Gregory P.'
'Singh, Pawanpreet'
'Sugden, Isaac J.'
'Szalewicz, Krzysztof'
'Taylor, Christopher R.'
'Tkatchenko, Alexandre'
'Tuckerman, Mark E.'
'Vacarro, Francesca'
'Vasileiadis, Manolis'
'Vazquez-Mayagoitia, Alvaro'
'Vogt, Leslie'
'Wang, Yanchao'
'Watson, Rona E.'
'de Wijs, Gilles A.'
'Yang, Jack'
'Zhu, Qiang'
'Groom, Colin R.'
_publ_section_title
;
 Report on the sixth blind test of organic crystal structure prediction
 methods
;
_journal_issue                   4
_journal_name_full               'Acta Crystallographica Section B'
_journal_page_first              439
_journal_page_last               459
_journal_paper_doi               10.1107/S2052520616007447
_journal_volume                  72
_journal_year                    2016
_chemical_compound_source        'see text'
_chemical_formula_moiety         'C8 N4 S3'
_chemical_formula_sum            'C8 N4 S3'
_chemical_formula_weight         248.33
_space_group_IT_number           4
_symmetry_cell_setting           monoclinic
_symmetry_Int_Tables_number      4
_symmetry_space_group_name_Hall  'P 2yb'
_symmetry_space_group_name_H-M   'P 1 21 1'
_atom_sites_solution_hydrogens   ' .'
_atom_sites_solution_primary     ' ?'
_atom_sites_solution_secondary   ' ?'
_cell_angle_alpha                90
_cell_angle_beta                 90.2560
_cell_angle_gamma                90
_cell_formula_units_Z            2
_cell_length_a                   7.43350
_cell_length_b                   6.35570
_cell_length_c                   11.68760
_cell_volume                     552.176
_computing_publication_material  'PLATON (Spek, 2003)'
_diffrn_radiation_probe          x-ray
_diffrn_radiation_type           MoK\a
_diffrn_radiation_wavelength     0.71073
_diffrn_reflns_reduction_process
;
;
_exptl_absorpt_coefficient_mu    0.640
_exptl_absorpt_correction_type   ' ?'
_exptl_crystal_colour            ' ?'
_exptl_crystal_density_diffrn    1.494
_exptl_crystal_density_method    'Not Measured'
_exptl_crystal_description       ' ?'
_exptl_crystal_F_000             248
_refine_ls_abs_structure_details 'Flack (1983)'
_refine_ls_extinction_method     ' ?'
_refine_ls_hydrogen_treatment    ' .'
_refine_ls_number_restraints     0
_refine_ls_weighting_scheme      ?
_iucr_refine_instructions_details
;
;
_cod_data_source_file            XXII-1_Goto_Obata.cif
_cod_data_source_block           XXII_R030
_cod_original_sg_symbol_H-M      'P 21'
_cod_struct_determination_method theoretical
_cod_database_code               2107770
loop_
_symmetry_equiv_pos_site_id
_symmetry_equiv_pos_as_xyz
1 x,y,z
2 -x,1/2+y,-z
loop_
_atom_site_label
_atom_site_type_symbol
_atom_site_thermal_displace_type
_atom_site_fract_x
_atom_site_fract_y
_atom_site_fract_z
_atom_site_occupancy
_atom_site_U_iso_or_equiv
S1 S Uiso 0.05701 0.22606 0.72567 1.000 0.0500
S2 S Uiso 0.28001 0.66678 0.78824 1.000 0.0500
S3 S Uiso -0.22182 0.65823 0.93608 1.000 0.0500
N1 N Uiso -0.01820 0.75131 0.90697 1.000 0.0500
N2 N Uiso 0.14337 0.24049 0.41713 1.000 0.0500
N3 N Uiso 0.39705 0.77828 0.48358 1.000 0.0500
N4 N Uiso -0.45443 0.15340 0.84350 1.000 0.0500
C1 C Uiso 0.17369 0.37880 0.62533 1.000 0.0500
C2 C Uiso 0.26208 0.55934 0.65021 1.000 0.0500
C3 C Uiso 0.06326 0.61298 0.83950 1.000 0.0500
C4 C Uiso -0.03264 0.42604 0.81173 1.000 0.0500
C5 C Uiso -0.20040 0.42894 0.86117 1.000 0.0500
C6 C Uiso 0.16242 0.30327 0.50983 1.000 0.0500
C7 C Uiso 0.34190 0.68050 0.55990 1.000 0.0500
C8 C Uiso -0.33862 0.27512 0.85259 1.000 0.0500
loop_
_atom_type_symbol
_atom_type_description
_atom_type_scat_dispersion_real
_atom_type_scat_dispersion_imag
_atom_type_scat_source
C C 0.0033 0.0016 ' International Tables Vol C Tables 4.2.6.8 and 6.1.1.4'
N N 0.0061 0.0033 ' International Tables Vol C Tables 4.2.6.8 and 6.1.1.4'
S S 0.1246 0.1234 ' International Tables Vol C Tables 4.2.6.8 and 6.1.1.4'
loop_
_geom_angle_atom_site_label_1
_geom_angle_atom_site_label_2
_geom_angle_atom_site_label_3
_geom_angle
_geom_angle_publ_flag
C1 S1 C4 99.94 yes
C2 S2 C3 99.89 yes
N1 S3 C5 96.41 yes
S3 N1 C3 107.69 yes
S1 C1 C2 124.50 yes
S1 C1 C6 114.63 yes
C2 C1 C6 120.80 no
S2 C2 C1 124.18 yes
S2 C2 C7 115.88 yes
C1 C2 C7 119.89 no
S2 C3 N1 119.68 yes
S2 C3 C4 123.01 yes
N1 C3 C4 117.31 yes
S1 C4 C3 123.01 yes
S1 C4 C5 126.69 yes
C3 C4 C5 110.30 no
S3 C5 C4 108.26 yes
S3 C5 C8 123.64 yes
C4 C5 C8 128.09 no
N2 C6 C1 176.29 yes
N3 C7 C2 176.08 yes
N4 C8 C5 177.98 yes
loop_
_geom_bond_atom_site_label_1
_geom_bond_atom_site_label_2
_geom_bond_distance
_geom_bond_publ_flag
S1 C1 1.7547 yes
S1 C4 1.7542 yes
S2 C2 1.7563 yes
S2 C3 1.7551 yes
S3 N1 1.6617 yes
S3 C5 1.7079 yes
N1 C3 1.3288 yes
N2 C6 1.1626 yes
N3 C7 1.1633 yes
N4 C8 1.1619 yes
C1 C2 1.3532 no
C1 C6 1.4348 no
C2 C7 1.4369 no
C3 C4 1.4224 no
C4 C5 1.3769 no
C5 C8 1.4215 no
loop_
_geom_torsion_atom_site_label_1
_geom_torsion_atom_site_label_2
_geom_torsion_atom_site_label_3
_geom_torsion_atom_site_label_4
_geom_torsion
_geom_torsion_publ_flag
C1 S1 C4 C5 141.87 no
C4 S1 C1 C2 36.80 no
C4 S1 C1 C6 -140.33 no
C1 S1 C4 C3 -37.84 no
C3 S2 C2 C1 -38.93 no
C3 S2 C2 C7 138.41 no
C2 S2 C3 N1 -143.09 no
C2 S2 C3 C4 36.53 no
C5 S3 N1 C3 1.32 no
N1 S3 C5 C8 -179.49 no
N1 S3 C5 C4 -0.64 no
S3 N1 C3 C4 -1.71 no
S3 N1 C3 S2 177.93 no
C6 C1 C2 C7 1.64 no
S1 C1 C2 C7 -175.32 no
C6 C1 C2 S2 178.88 no
S1 C1 C2 S2 1.92 no
S2 C3 C4 S1 1.40 no
S2 C3 C4 C5 -178.34 no
N1 C3 C4 C5 1.29 no
N1 C3 C4 S1 -178.97 no
S1 C4 C5 S3 -179.92 no
C3 C4 C5 C8 178.58 no
S1 C4 C5 C8 -1.15 no
C3 C4 C5 S3 -0.20 no
