#------------------------------------------------------------------------------
#$Date: 2023-12-05 10:34:00 +0200 (Tue, 05 Dec 2023) $
#$Revision: 288031 $
#$URL: file:///home/coder/svn-repositories/cod/cif/2/10/78/2107827.cif $
#------------------------------------------------------------------------------
#
# This file is available in the Crystallography Open Database (COD),
# http://www.crystallography.net/. The original data for this entry
# were provided by IUCr Journals, http://journals.iucr.org/.
#
# The file may be used within the scientific community so long as
# proper attribution is given to the journal article from which the
# data were obtained.
#
data_2107827
loop_
_publ_author_name
'Reilly, Anthony M.'
'Cooper, Richard I.'
'Adjiman, Claire S.'
'Bhattacharya, Saswata'
'Boese, A. Daniel'
'Brandenburg, Jan Gerit'
'Bygrave, Peter J.'
'Bylsma, Rita'
'Campbell, Josh E.'
'Car, Roberto'
'Case, David H.'
'Chadha, Renu'
'Cole, Jason C.'
'Cosburn, Katherine'
'Cuppen, Herma M.'
'Curtis, Farren'
'Day, Graeme M.'
'DiStasio Jr, Robert A.'
'Dzyabchenko, Alexander'
'van Eijck, Bouke P.'
'Elking, Dennis M.'
'van den Ende, Joost A.'
'Facelli, Julio C.'
'Ferraro, Marta B.'
'Fusti-Molnar, Laszlo'
'Gatsiou, Christina-Anna'
'Gee, Thomas S.'
'de Gelder, Ren\'e'
'Ghiringhelli, Luca M.'
'Goto, Hitoshi'
'Grimme, Stefan'
'Guo, Rui'
'Hofmann, Detlef W. M.'
'Hoja, Johannes'
'Hylton, Rebecca K.'
'Iuzzolino, Luca'
'Jankiewicz, Wojciech'
'de Jong, Dani\"el T.'
'Kendrick, John'
'de Klerk, Niek J. J.'
'Ko, Hsin-Yu'
'Kuleshova, Liudmila N.'
'Li, Xiayue'
'Lohani, Sanjaya'
'Leusen, Frank J. J.'
'Lund, Albert M.'
'Lv, Jian'
'Ma, Yanming'
'Marom, Noa'
'Masunov, Art\"em E.'
'McCabe, Patrick'
'McMahon, David P.'
'Meekes, Hugo'
'Metz, Michael P.'
'Misquitta, Alston J.'
'Mohamed, Sharmarke'
'Monserrat, Bartomeu'
'Needs, Richard J.'
'Neumann, Marcus A.'
'Nyman, Jonas'
'Obata, Shigeaki'
'Oberhofer, Harald'
'Oganov, Artem R.'
'Orendt, Anita M.'
'Pagola, Gabriel I.'
'Pantelides, Constantinos C.'
'Pickard, Chris J.'
'Podeszwa, Rafal'
'Price, Louise S.'
'Price, Sarah L.'
'Pulido, Angeles'
'Read, Murray G.'
'Reuter, Karsten'
'Schneider, Elia'
'Schober, Christoph'
'Shields, Gregory P.'
'Singh, Pawanpreet'
'Sugden, Isaac J.'
'Szalewicz, Krzysztof'
'Taylor, Christopher R.'
'Tkatchenko, Alexandre'
'Tuckerman, Mark E.'
'Vacarro, Francesca'
'Vasileiadis, Manolis'
'Vazquez-Mayagoitia, Alvaro'
'Vogt, Leslie'
'Wang, Yanchao'
'Watson, Rona E.'
'de Wijs, Gilles A.'
'Yang, Jack'
'Zhu, Qiang'
'Groom, Colin R.'
_publ_section_title
;
 Report on the sixth blind test of organic crystal structure prediction
 methods
;
_journal_issue                   4
_journal_name_full               'Acta Crystallographica Section B'
_journal_page_first              439
_journal_page_last               459
_journal_paper_doi               10.1107/S2052520616007447
_journal_volume                  72
_journal_year                    2016
_chemical_compound_source        'see text'
_chemical_formula_moiety         'C8 N4 S3'
_chemical_formula_sum            'C8 N4 S3'
_chemical_formula_weight         248.33
_space_group_IT_number           19
_symmetry_cell_setting           orthorhombic
_symmetry_Int_Tables_number      19
_symmetry_space_group_name_Hall  'P 2ac 2ab'
_symmetry_space_group_name_H-M   'P 21 21 21'
_atom_sites_solution_hydrogens   ' .'
_atom_sites_solution_primary     ' ?'
_atom_sites_solution_secondary   ' ?'
_cell_angle_alpha                90
_cell_angle_beta                 90
_cell_angle_gamma                90
_cell_formula_units_Z            4
_cell_length_a                   6.00270
_cell_length_b                   10.02800
_cell_length_c                   18.79850
_cell_volume                     1131.577
_computing_publication_material  'PLATON (Spek, 2003)'
_diffrn_radiation_probe          x-ray
_diffrn_radiation_type           MoK\a
_diffrn_radiation_wavelength     0.71073
_diffrn_reflns_reduction_process
;
;
_exptl_absorpt_coefficient_mu    0.624
_exptl_absorpt_correction_type   ' ?'
_exptl_crystal_colour            ' ?'
_exptl_crystal_density_diffrn    1.458
_exptl_crystal_density_method    'Not Measured'
_exptl_crystal_description       ' ?'
_exptl_crystal_F_000             496
_refine_ls_abs_structure_details 'Flack (1983)'
_refine_ls_extinction_method     ' ?'
_refine_ls_hydrogen_treatment    ' .'
_refine_ls_number_restraints     0
_refine_ls_weighting_scheme      ?
_iucr_refine_instructions_details
;
;
_cod_data_source_file            XXII-1_Goto_Obata.cif
_cod_data_source_block           XXII_R087
_cod_struct_determination_method theoretical
_cod_database_code               2107827
loop_
_symmetry_equiv_pos_site_id
_symmetry_equiv_pos_as_xyz
1 x,y,z
2 1/2-x,-y,1/2+z
3 1/2+x,1/2-y,-z
4 -x,1/2+y,1/2-z
loop_
_atom_site_label
_atom_site_type_symbol
_atom_site_thermal_displace_type
_atom_site_fract_x
_atom_site_fract_y
_atom_site_fract_z
_atom_site_occupancy
_atom_site_U_iso_or_equiv
S1 S Uiso 0.73188 0.07562 0.13216 1.000 0.0500
S2 S Uiso 0.28133 0.08054 0.02417 1.000 0.0500
S3 S Uiso 0.33702 0.42538 0.14015 1.000 0.0500
N1 N Uiso 0.22687 0.31876 0.08267 1.000 0.0500
N2 N Uiso 0.66989 -0.28645 0.17221 1.000 0.0500
N3 N Uiso 0.15674 -0.27599 0.04672 1.000 0.0500
N4 N Uiso 0.84011 0.39888 0.26056 1.000 0.0500
C1 C Uiso 0.56361 -0.06188 0.11175 1.000 0.0500
C2 C Uiso 0.38121 -0.05896 0.06957 1.000 0.0500
C3 C Uiso 0.35380 0.21016 0.08165 1.000 0.0500
C4 C Uiso 0.54372 0.20882 0.12679 1.000 0.0500
C5 C Uiso 0.55858 0.32765 0.16351 1.000 0.0500
C6 C Uiso 0.63013 -0.18588 0.14413 1.000 0.0500
C7 C Uiso 0.25600 -0.17863 0.05751 1.000 0.0500
C8 C Uiso 0.72018 0.36732 0.21494 1.000 0.0500
loop_
_atom_type_symbol
_atom_type_description
_atom_type_scat_dispersion_real
_atom_type_scat_dispersion_imag
_atom_type_scat_source
C C 0.0033 0.0016 ' International Tables Vol C Tables 4.2.6.8 and 6.1.1.4'
N N 0.0061 0.0033 ' International Tables Vol C Tables 4.2.6.8 and 6.1.1.4'
S S 0.1246 0.1234 ' International Tables Vol C Tables 4.2.6.8 and 6.1.1.4'
loop_
_geom_angle_atom_site_label_1
_geom_angle_atom_site_label_2
_geom_angle_atom_site_label_3
_geom_angle
_geom_angle_publ_flag
C1 S1 C4 102.46 yes
C2 S2 C3 102.04 yes
N1 S3 C5 96.20 yes
S3 N1 C3 108.01 yes
S1 C1 C2 125.33 yes
S1 C1 C6 115.27 yes
C2 C1 C6 119.39 no
S2 C2 C1 125.62 yes
S2 C2 C7 114.42 yes
C1 C2 C7 119.93 no
S2 C3 N1 118.44 yes
S2 C3 C4 124.23 yes
N1 C3 C4 117.32 yes
S1 C4 C3 123.96 yes
S1 C4 C5 126.00 yes
C3 C4 C5 110.02 no
S3 C5 C4 108.44 yes
S3 C5 C8 122.92 yes
C4 C5 C8 128.60 no
N2 C6 C1 175.50 yes
N3 C7 C2 178.84 yes
N4 C8 C5 175.10 yes
loop_
_geom_bond_atom_site_label_1
_geom_bond_atom_site_label_2
_geom_bond_distance
_geom_bond_publ_flag
S1 C1 1.7518 yes
S1 C4 1.7522 yes
S2 C2 1.7449 yes
S2 C3 1.7454 yes
S3 N1 1.6577 yes
S3 C5 1.7094 yes
N1 C3 1.3292 yes
N2 C6 1.1631 yes
N3 C7 1.1616 yes
N4 C8 1.1636 yes
C1 C2 1.3522 no
C1 C6 1.4409 no
C2 C7 1.4340 no
C3 C4 1.4212 no
C4 C5 1.3800 no
C5 C8 1.4262 no
loop_
_geom_torsion_atom_site_label_1
_geom_torsion_atom_site_label_2
_geom_torsion_atom_site_label_3
_geom_torsion_atom_site_label_4
_geom_torsion
_geom_torsion_publ_flag
C1 S1 C4 C5 152.34 no
C4 S1 C1 C2 28.96 no
C4 S1 C1 C6 -150.53 no
C1 S1 C4 C3 -29.28 no
C3 S2 C2 C1 -32.54 no
C3 S2 C2 C7 149.27 no
C2 S2 C3 N1 -150.35 no
C2 S2 C3 C4 31.07 no
C5 S3 N1 C3 0.72 no
N1 S3 C5 C8 -178.94 no
N1 S3 C5 C4 -1.15 no
S3 N1 C3 C4 -0.10 no
S3 N1 C3 S2 -178.78 no
C6 C1 C2 C7 0.05 no
S1 C1 C2 C7 -179.42 no
C6 C1 C2 S2 -178.05 no
S1 C1 C2 S2 2.48 no
S2 C3 C4 S1 -0.78 no
S2 C3 C4 C5 177.83 no
N1 C3 C4 C5 -0.76 no
N1 C3 C4 S1 -179.37 no
S1 C4 C5 S3 179.78 no
C3 C4 C5 C8 178.84 no
S1 C4 C5 C8 -2.60 no
C3 C4 C5 S3 1.21 no
