#------------------------------------------------------------------------------
#$Date: 2023-12-05 10:34:00 +0200 (Tue, 05 Dec 2023) $
#$Revision: 288031 $
#$URL: file:///home/coder/svn-repositories/cod/cif/2/10/77/2107743.cif $
#------------------------------------------------------------------------------
#
# This file is available in the Crystallography Open Database (COD),
# http://www.crystallography.net/. The original data for this entry
# were provided by IUCr Journals, http://journals.iucr.org/.
#
# The file may be used within the scientific community so long as
# proper attribution is given to the journal article from which the
# data were obtained.
#
data_2107743
loop_
_publ_author_name
'Reilly, Anthony M.'
'Cooper, Richard I.'
'Adjiman, Claire S.'
'Bhattacharya, Saswata'
'Boese, A. Daniel'
'Brandenburg, Jan Gerit'
'Bygrave, Peter J.'
'Bylsma, Rita'
'Campbell, Josh E.'
'Car, Roberto'
'Case, David H.'
'Chadha, Renu'
'Cole, Jason C.'
'Cosburn, Katherine'
'Cuppen, Herma M.'
'Curtis, Farren'
'Day, Graeme M.'
'DiStasio Jr, Robert A.'
'Dzyabchenko, Alexander'
'van Eijck, Bouke P.'
'Elking, Dennis M.'
'van den Ende, Joost A.'
'Facelli, Julio C.'
'Ferraro, Marta B.'
'Fusti-Molnar, Laszlo'
'Gatsiou, Christina-Anna'
'Gee, Thomas S.'
'de Gelder, Ren\'e'
'Ghiringhelli, Luca M.'
'Goto, Hitoshi'
'Grimme, Stefan'
'Guo, Rui'
'Hofmann, Detlef W. M.'
'Hoja, Johannes'
'Hylton, Rebecca K.'
'Iuzzolino, Luca'
'Jankiewicz, Wojciech'
'de Jong, Dani\"el T.'
'Kendrick, John'
'de Klerk, Niek J. J.'
'Ko, Hsin-Yu'
'Kuleshova, Liudmila N.'
'Li, Xiayue'
'Lohani, Sanjaya'
'Leusen, Frank J. J.'
'Lund, Albert M.'
'Lv, Jian'
'Ma, Yanming'
'Marom, Noa'
'Masunov, Art\"em E.'
'McCabe, Patrick'
'McMahon, David P.'
'Meekes, Hugo'
'Metz, Michael P.'
'Misquitta, Alston J.'
'Mohamed, Sharmarke'
'Monserrat, Bartomeu'
'Needs, Richard J.'
'Neumann, Marcus A.'
'Nyman, Jonas'
'Obata, Shigeaki'
'Oberhofer, Harald'
'Oganov, Artem R.'
'Orendt, Anita M.'
'Pagola, Gabriel I.'
'Pantelides, Constantinos C.'
'Pickard, Chris J.'
'Podeszwa, Rafal'
'Price, Louise S.'
'Price, Sarah L.'
'Pulido, Angeles'
'Read, Murray G.'
'Reuter, Karsten'
'Schneider, Elia'
'Schober, Christoph'
'Shields, Gregory P.'
'Singh, Pawanpreet'
'Sugden, Isaac J.'
'Szalewicz, Krzysztof'
'Taylor, Christopher R.'
'Tkatchenko, Alexandre'
'Tuckerman, Mark E.'
'Vacarro, Francesca'
'Vasileiadis, Manolis'
'Vazquez-Mayagoitia, Alvaro'
'Vogt, Leslie'
'Wang, Yanchao'
'Watson, Rona E.'
'de Wijs, Gilles A.'
'Yang, Jack'
'Zhu, Qiang'
'Groom, Colin R.'
_publ_section_title
;
 Report on the sixth blind test of organic crystal structure prediction
 methods
;
_journal_issue                   4
_journal_name_full               'Acta Crystallographica Section B'
_journal_page_first              439
_journal_page_last               459
_journal_paper_doi               10.1107/S2052520616007447
_journal_volume                  72
_journal_year                    2016
_chemical_compound_source        'see text'
_chemical_formula_moiety         'C8 N4 S3'
_chemical_formula_sum            'C8 N4 S3'
_chemical_formula_weight         248.33
_space_group_IT_number           33
_symmetry_cell_setting           orthorhombic
_symmetry_Int_Tables_number      33
_symmetry_space_group_name_Hall  'P 2c -2n'
_symmetry_space_group_name_H-M   'P n a 21'
_atom_sites_solution_hydrogens   ' .'
_atom_sites_solution_primary     ' ?'
_atom_sites_solution_secondary   ' ?'
_cell_angle_alpha                90
_cell_angle_beta                 90
_cell_angle_gamma                90
_cell_formula_units_Z            4
_cell_length_a                   13.33660
_cell_length_b                   10.53200
_cell_length_c                   7.68930
_cell_volume                     1080.047
_computing_publication_material  'PLATON (Spek, 2003)'
_diffrn_radiation_probe          x-ray
_diffrn_radiation_type           MoK\a
_diffrn_radiation_wavelength     0.71073
_diffrn_reflns_reduction_process
;
;
_exptl_absorpt_coefficient_mu    0.654
_exptl_absorpt_correction_type   ' ?'
_exptl_crystal_colour            ' ?'
_exptl_crystal_density_diffrn    1.527
_exptl_crystal_density_method    'Not Measured'
_exptl_crystal_description       ' ?'
_exptl_crystal_F_000             496
_refine_ls_abs_structure_details 'Flack (1983)'
_refine_ls_extinction_method     ' ?'
_refine_ls_hydrogen_treatment    ' .'
_refine_ls_number_restraints     0
_refine_ls_weighting_scheme      ?
_iucr_refine_instructions_details
;
;
_cod_data_source_file            XXII-1_Goto_Obata.cif
_cod_data_source_block           XXII_R003
_cod_struct_determination_method theoretical
_cod_database_code               2107743
loop_
_symmetry_equiv_pos_site_id
_symmetry_equiv_pos_as_xyz
1 x,y,z
2 -x,-y,1/2+z
3 1/2-x,1/2+y,1/2+z
4 1/2+x,1/2-y,z
loop_
_atom_site_label
_atom_site_type_symbol
_atom_site_thermal_displace_type
_atom_site_fract_x
_atom_site_fract_y
_atom_site_fract_z
_atom_site_occupancy
_atom_site_U_iso_or_equiv
S1 S Uiso 0.30211 0.39352 0.51549 1.000 0.0500
S2 S Uiso 0.52128 0.51898 0.66176 1.000 0.0500
S3 S Uiso 0.51068 0.13324 0.72613 1.000 0.0500
N1 N Uiso 0.55585 0.27967 0.74598 1.000 0.0500
N2 N Uiso 0.16024 0.68984 0.58086 1.000 0.0500
N3 N Uiso 0.41355 0.82833 0.77092 1.000 0.0500
N4 N Uiso 0.27007 0.02107 0.49740 1.000 0.0500
C1 C Uiso 0.31908 0.54751 0.59529 1.000 0.0500
C2 C Uiso 0.40597 0.59673 0.65526 1.000 0.0500
C3 C Uiso 0.48918 0.35912 0.67698 1.000 0.0500
C4 C Uiso 0.39910 0.30630 0.61124 1.000 0.0500
C5 C Uiso 0.40208 0.17561 0.62398 1.000 0.0500
C6 C Uiso 0.23095 0.62572 0.58857 1.000 0.0500
C7 C Uiso 0.40946 0.72565 0.71612 1.000 0.0500
C8 C Uiso 0.32987 0.08764 0.55920 1.000 0.0500
loop_
_atom_type_symbol
_atom_type_description
_atom_type_scat_dispersion_real
_atom_type_scat_dispersion_imag
_atom_type_scat_source
C C 0.0033 0.0016 ' International Tables Vol C Tables 4.2.6.8 and 6.1.1.4'
N N 0.0061 0.0033 ' International Tables Vol C Tables 4.2.6.8 and 6.1.1.4'
S S 0.1246 0.1234 ' International Tables Vol C Tables 4.2.6.8 and 6.1.1.4'
loop_
_geom_angle_atom_site_label_1
_geom_angle_atom_site_label_2
_geom_angle_atom_site_label_3
_geom_angle
_geom_angle_publ_flag
C1 S1 C4 104.10 yes
C2 S2 C3 103.84 yes
N1 S3 C5 96.15 yes
S3 N1 C3 107.72 yes
S1 C1 C2 125.93 yes
S1 C1 C6 114.42 yes
C2 C1 C6 119.62 no
S2 C2 C1 125.91 yes
S2 C2 C7 113.95 yes
C1 C2 C7 120.11 no
S2 C3 N1 118.06 yes
S2 C3 C4 124.34 yes
N1 C3 C4 117.49 yes
S1 C4 C3 124.82 yes
S1 C4 C5 125.09 yes
C3 C4 C5 109.98 no
S3 C5 C4 108.53 yes
S3 C5 C8 124.32 yes
C4 C5 C8 127.12 no
N2 C6 C1 178.96 yes
N3 C7 C2 177.58 yes
N4 C8 C5 175.63 yes
loop_
_geom_bond_atom_site_label_1
_geom_bond_atom_site_label_2
_geom_bond_distance
_geom_bond_publ_flag
S1 C1 1.7487 yes
S1 C4 1.7490 yes
S2 C2 1.7430 yes
S2 C3 1.7412 yes
S3 N1 1.6627 yes
S3 C5 1.7070 yes
N1 C3 1.3313 yes
N2 C6 1.1614 yes
N3 C7 1.1619 yes
N4 C8 1.1634 yes
C1 C2 1.3506 no
C1 C6 1.4362 no
C2 C7 1.4369 no
C3 C4 1.4171 no
C4 C5 1.3805 no
C5 C8 1.4262 no
loop_
_geom_torsion_atom_site_label_1
_geom_torsion_atom_site_label_2
_geom_torsion_atom_site_label_3
_geom_torsion_atom_site_label_4
_geom_torsion
_geom_torsion_publ_flag
C1 S1 C4 C5 162.29 no
C4 S1 C1 C2 23.60 no
C4 S1 C1 C6 -158.36 no
C1 S1 C4 C3 -22.04 no
C3 S2 C2 C1 -27.20 no
C3 S2 C2 C7 154.76 no
C2 S2 C3 N1 -156.12 no
C2 S2 C3 C4 27.87 no
C5 S3 N1 C3 0.33 no
N1 S3 C5 C8 175.72 no
N1 S3 C5 C4 -2.37 no
S3 N1 C3 C4 1.86 no
S3 N1 C3 S2 -174.42 no
C6 C1 C2 C7 1.59 no
S1 C1 C2 C7 179.54 no
C6 C1 C2 S2 -176.33 no
S1 C1 C2 S2 1.61 no
S2 C3 C4 S1 -3.90 no
S2 C3 C4 C5 172.33 no
N1 C3 C4 C5 -3.70 no
N1 C3 C4 S1 -179.93 no
S1 C4 C5 S3 179.80 no
C3 C4 C5 C8 -174.44 no
S1 C4 C5 C8 1.78 no
C3 C4 C5 S3 3.58 no
