#------------------------------------------------------------------------------
#$Date: 2023-12-05 10:34:00 +0200 (Tue, 05 Dec 2023) $
#$Revision: 288031 $
#$URL: file:///home/coder/svn-repositories/cod/cif/2/10/77/2107790.cif $
#------------------------------------------------------------------------------
#
# This file is available in the Crystallography Open Database (COD),
# http://www.crystallography.net/. The original data for this entry
# were provided by IUCr Journals, http://journals.iucr.org/.
#
# The file may be used within the scientific community so long as
# proper attribution is given to the journal article from which the
# data were obtained.
#
data_2107790
loop_
_publ_author_name
'Reilly, Anthony M.'
'Cooper, Richard I.'
'Adjiman, Claire S.'
'Bhattacharya, Saswata'
'Boese, A. Daniel'
'Brandenburg, Jan Gerit'
'Bygrave, Peter J.'
'Bylsma, Rita'
'Campbell, Josh E.'
'Car, Roberto'
'Case, David H.'
'Chadha, Renu'
'Cole, Jason C.'
'Cosburn, Katherine'
'Cuppen, Herma M.'
'Curtis, Farren'
'Day, Graeme M.'
'DiStasio Jr, Robert A.'
'Dzyabchenko, Alexander'
'van Eijck, Bouke P.'
'Elking, Dennis M.'
'van den Ende, Joost A.'
'Facelli, Julio C.'
'Ferraro, Marta B.'
'Fusti-Molnar, Laszlo'
'Gatsiou, Christina-Anna'
'Gee, Thomas S.'
'de Gelder, Ren\'e'
'Ghiringhelli, Luca M.'
'Goto, Hitoshi'
'Grimme, Stefan'
'Guo, Rui'
'Hofmann, Detlef W. M.'
'Hoja, Johannes'
'Hylton, Rebecca K.'
'Iuzzolino, Luca'
'Jankiewicz, Wojciech'
'de Jong, Dani\"el T.'
'Kendrick, John'
'de Klerk, Niek J. J.'
'Ko, Hsin-Yu'
'Kuleshova, Liudmila N.'
'Li, Xiayue'
'Lohani, Sanjaya'
'Leusen, Frank J. J.'
'Lund, Albert M.'
'Lv, Jian'
'Ma, Yanming'
'Marom, Noa'
'Masunov, Art\"em E.'
'McCabe, Patrick'
'McMahon, David P.'
'Meekes, Hugo'
'Metz, Michael P.'
'Misquitta, Alston J.'
'Mohamed, Sharmarke'
'Monserrat, Bartomeu'
'Needs, Richard J.'
'Neumann, Marcus A.'
'Nyman, Jonas'
'Obata, Shigeaki'
'Oberhofer, Harald'
'Oganov, Artem R.'
'Orendt, Anita M.'
'Pagola, Gabriel I.'
'Pantelides, Constantinos C.'
'Pickard, Chris J.'
'Podeszwa, Rafal'
'Price, Louise S.'
'Price, Sarah L.'
'Pulido, Angeles'
'Read, Murray G.'
'Reuter, Karsten'
'Schneider, Elia'
'Schober, Christoph'
'Shields, Gregory P.'
'Singh, Pawanpreet'
'Sugden, Isaac J.'
'Szalewicz, Krzysztof'
'Taylor, Christopher R.'
'Tkatchenko, Alexandre'
'Tuckerman, Mark E.'
'Vacarro, Francesca'
'Vasileiadis, Manolis'
'Vazquez-Mayagoitia, Alvaro'
'Vogt, Leslie'
'Wang, Yanchao'
'Watson, Rona E.'
'de Wijs, Gilles A.'
'Yang, Jack'
'Zhu, Qiang'
'Groom, Colin R.'
_publ_section_title
;
 Report on the sixth blind test of organic crystal structure prediction
 methods
;
_journal_issue                   4
_journal_name_full               'Acta Crystallographica Section B'
_journal_page_first              439
_journal_page_last               459
_journal_paper_doi               10.1107/S2052520616007447
_journal_volume                  72
_journal_year                    2016
_chemical_compound_source        'see text'
_chemical_formula_moiety         'C8 N4 S3'
_chemical_formula_sum            'C8 N4 S3'
_chemical_formula_weight         248.33
_space_group_IT_number           14
_symmetry_cell_setting           monoclinic
_symmetry_Int_Tables_number      14
_symmetry_space_group_name_Hall  '-P 2ybc'
_symmetry_space_group_name_H-M   'P 1 21/c 1'
_atom_sites_solution_hydrogens   ' .'
_atom_sites_solution_primary     ' ?'
_atom_sites_solution_secondary   ' ?'
_cell_angle_alpha                90
_cell_angle_beta                 103.4510
_cell_angle_gamma                90
_cell_formula_units_Z            4
_cell_length_a                   7.35860
_cell_length_b                   18.80380
_cell_length_c                   8.70510
_cell_volume                     1171.481
_computing_publication_material  'PLATON (Spek, 2003)'
_diffrn_radiation_probe          x-ray
_diffrn_radiation_type           MoK\a
_diffrn_radiation_wavelength     0.71073
_diffrn_reflns_reduction_process
;
;
_exptl_absorpt_coefficient_mu    0.603
_exptl_absorpt_correction_type   ' ?'
_exptl_crystal_colour            ' ?'
_exptl_crystal_density_diffrn    1.408
_exptl_crystal_density_method    'Not Measured'
_exptl_crystal_description       ' ?'
_exptl_crystal_F_000             496
_refine_ls_extinction_method     ' ?'
_refine_ls_hydrogen_treatment    ' .'
_refine_ls_number_restraints     0
_refine_ls_weighting_scheme      ?
_iucr_refine_instructions_details
;
;
_cod_data_source_file            XXII-1_Goto_Obata.cif
_cod_data_source_block           XXII_R050
_cod_original_sg_symbol_H-M      'P 21/c'
_cod_struct_determination_method theoretical
_cod_database_code               2107790
loop_
_symmetry_equiv_pos_site_id
_symmetry_equiv_pos_as_xyz
1 x,y,z
2 -x,1/2+y,1/2-z
3 -x,-y,-z
4 x,1/2-y,1/2+z
loop_
_atom_site_label
_atom_site_type_symbol
_atom_site_thermal_displace_type
_atom_site_fract_x
_atom_site_fract_y
_atom_site_fract_z
_atom_site_occupancy
_atom_site_U_iso_or_equiv
S1 S Uiso 0.87187 0.10521 0.53823 1.000 0.0500
S2 S Uiso 0.55444 0.04666 0.73218 1.000 0.0500
S3 S Uiso 0.31197 0.16484 0.34075 1.000 0.0500
N1 N Uiso 0.32185 0.11605 0.50150 1.000 0.0500
N2 N Uiso 1.23112 0.14058 0.91223 1.000 0.0500
N3 N Uiso 0.87858 0.05716 1.12463 1.000 0.0500
N4 N Uiso 0.70056 0.22489 0.14733 1.000 0.0500
C1 C Uiso 0.90727 0.10030 0.74381 1.000 0.0500
C2 C Uiso 0.78022 0.07564 0.82086 1.000 0.0500
C3 C Uiso 0.49944 0.09930 0.56206 1.000 0.0500
C4 C Uiso 0.63269 0.12347 0.47944 1.000 0.0500
C5 C Uiso 0.54576 0.16210 0.34815 1.000 0.0500
C6 C Uiso 1.08877 0.12257 0.83266 1.000 0.0500
C7 C Uiso 0.83115 0.06750 0.98953 1.000 0.0500
C8 C Uiso 0.62967 0.19623 0.23636 1.000 0.0500
loop_
_atom_type_symbol
_atom_type_description
_atom_type_scat_dispersion_real
_atom_type_scat_dispersion_imag
_atom_type_scat_source
C C 0.0033 0.0016 ' International Tables Vol C Tables 4.2.6.8 and 6.1.1.4'
N N 0.0061 0.0033 ' International Tables Vol C Tables 4.2.6.8 and 6.1.1.4'
S S 0.1246 0.1234 ' International Tables Vol C Tables 4.2.6.8 and 6.1.1.4'
loop_
_geom_angle_atom_site_label_1
_geom_angle_atom_site_label_2
_geom_angle_atom_site_label_3
_geom_angle
_geom_angle_publ_flag
C1 S1 C4 102.12 yes
C2 S2 C3 101.92 yes
N1 S3 C5 96.05 yes
S3 N1 C3 108.16 yes
S1 C1 C2 124.71 yes
S1 C1 C6 115.62 yes
C2 C1 C6 119.64 no
S2 C2 C1 125.67 yes
S2 C2 C7 114.41 yes
C1 C2 C7 119.81 no
S2 C3 N1 118.87 yes
S2 C3 C4 124.02 yes
N1 C3 C4 117.06 yes
S1 C4 C3 123.77 yes
S1 C4 C5 125.94 yes
C3 C4 C5 110.28 no
S3 C5 C4 108.43 yes
S3 C5 C8 123.71 yes
C4 C5 C8 127.84 no
N2 C6 C1 176.01 yes
N3 C7 C2 175.74 yes
N4 C8 C5 178.65 yes
loop_
_geom_bond_atom_site_label_1
_geom_bond_atom_site_label_2
_geom_bond_distance
_geom_bond_publ_flag
S1 C1 1.7499 yes
S1 C4 1.7488 yes
S2 C2 1.7483 yes
S2 C3 1.7487 yes
S3 N1 1.6607 yes
S3 C5 1.7073 yes
N1 C3 1.3283 yes
N2 C6 1.1637 yes
N3 C7 1.1627 yes
N4 C8 1.1624 yes
C1 C2 1.3530 no
C1 C6 1.4411 no
C2 C7 1.4366 no
C3 C4 1.4189 no
C4 C5 1.3795 no
C5 C8 1.4212 no
loop_
_geom_torsion_atom_site_label_1
_geom_torsion_atom_site_label_2
_geom_torsion_atom_site_label_3
_geom_torsion_atom_site_label_4
_geom_torsion
_geom_torsion_publ_flag
C1 S1 C4 C5 149.48 no
C4 S1 C1 C2 33.33 no
C4 S1 C1 C6 -148.69 no
C1 S1 C4 C3 -31.10 no
C3 S2 C2 C1 -30.66 no
C3 S2 C2 C7 153.09 no
C2 S2 C3 N1 -150.78 no
C2 S2 C3 C4 31.79 no
C5 S3 N1 C3 1.41 no
N1 S3 C5 C8 -179.70 no
N1 S3 C5 C4 -0.95 no
S3 N1 C3 C4 -1.56 no
S3 N1 C3 S2 -179.17 no
C6 C1 C2 C7 -4.04 no
S1 C1 C2 C7 173.87 no
C6 C1 C2 S2 179.90 no
S1 C1 C2 S2 -2.20 no
S2 C3 C4 S1 -1.13 no
S2 C3 C4 C5 178.36 no
N1 C3 C4 C5 0.89 no
N1 C3 C4 S1 -178.60 no
S1 C4 C5 S3 179.70 no
C3 C4 C5 C8 178.91 no
S1 C4 C5 C8 -1.61 no
C3 C4 C5 S3 0.22 no
