#------------------------------------------------------------------------------
#$Date: 2023-12-05 10:34:00 +0200 (Tue, 05 Dec 2023) $
#$Revision: 288031 $
#$URL: file:///home/coder/svn-repositories/cod/cif/2/10/77/2107777.cif $
#------------------------------------------------------------------------------
#
# This file is available in the Crystallography Open Database (COD),
# http://www.crystallography.net/. The original data for this entry
# were provided by IUCr Journals, http://journals.iucr.org/.
#
# The file may be used within the scientific community so long as
# proper attribution is given to the journal article from which the
# data were obtained.
#
data_2107777
loop_
_publ_author_name
'Reilly, Anthony M.'
'Cooper, Richard I.'
'Adjiman, Claire S.'
'Bhattacharya, Saswata'
'Boese, A. Daniel'
'Brandenburg, Jan Gerit'
'Bygrave, Peter J.'
'Bylsma, Rita'
'Campbell, Josh E.'
'Car, Roberto'
'Case, David H.'
'Chadha, Renu'
'Cole, Jason C.'
'Cosburn, Katherine'
'Cuppen, Herma M.'
'Curtis, Farren'
'Day, Graeme M.'
'DiStasio Jr, Robert A.'
'Dzyabchenko, Alexander'
'van Eijck, Bouke P.'
'Elking, Dennis M.'
'van den Ende, Joost A.'
'Facelli, Julio C.'
'Ferraro, Marta B.'
'Fusti-Molnar, Laszlo'
'Gatsiou, Christina-Anna'
'Gee, Thomas S.'
'de Gelder, Ren\'e'
'Ghiringhelli, Luca M.'
'Goto, Hitoshi'
'Grimme, Stefan'
'Guo, Rui'
'Hofmann, Detlef W. M.'
'Hoja, Johannes'
'Hylton, Rebecca K.'
'Iuzzolino, Luca'
'Jankiewicz, Wojciech'
'de Jong, Dani\"el T.'
'Kendrick, John'
'de Klerk, Niek J. J.'
'Ko, Hsin-Yu'
'Kuleshova, Liudmila N.'
'Li, Xiayue'
'Lohani, Sanjaya'
'Leusen, Frank J. J.'
'Lund, Albert M.'
'Lv, Jian'
'Ma, Yanming'
'Marom, Noa'
'Masunov, Art\"em E.'
'McCabe, Patrick'
'McMahon, David P.'
'Meekes, Hugo'
'Metz, Michael P.'
'Misquitta, Alston J.'
'Mohamed, Sharmarke'
'Monserrat, Bartomeu'
'Needs, Richard J.'
'Neumann, Marcus A.'
'Nyman, Jonas'
'Obata, Shigeaki'
'Oberhofer, Harald'
'Oganov, Artem R.'
'Orendt, Anita M.'
'Pagola, Gabriel I.'
'Pantelides, Constantinos C.'
'Pickard, Chris J.'
'Podeszwa, Rafal'
'Price, Louise S.'
'Price, Sarah L.'
'Pulido, Angeles'
'Read, Murray G.'
'Reuter, Karsten'
'Schneider, Elia'
'Schober, Christoph'
'Shields, Gregory P.'
'Singh, Pawanpreet'
'Sugden, Isaac J.'
'Szalewicz, Krzysztof'
'Taylor, Christopher R.'
'Tkatchenko, Alexandre'
'Tuckerman, Mark E.'
'Vacarro, Francesca'
'Vasileiadis, Manolis'
'Vazquez-Mayagoitia, Alvaro'
'Vogt, Leslie'
'Wang, Yanchao'
'Watson, Rona E.'
'de Wijs, Gilles A.'
'Yang, Jack'
'Zhu, Qiang'
'Groom, Colin R.'
_publ_section_title
;
 Report on the sixth blind test of organic crystal structure prediction
 methods
;
_journal_issue                   4
_journal_name_full               'Acta Crystallographica Section B'
_journal_page_first              439
_journal_page_last               459
_journal_paper_doi               10.1107/S2052520616007447
_journal_volume                  72
_journal_year                    2016
_chemical_compound_source        'see text'
_chemical_formula_moiety         'C8 N4 S3'
_chemical_formula_sum            'C8 N4 S3'
_chemical_formula_weight         248.33
_space_group_IT_number           14
_symmetry_cell_setting           monoclinic
_symmetry_Int_Tables_number      14
_symmetry_space_group_name_Hall  '-P 2ybc'
_symmetry_space_group_name_H-M   'P 1 21/c 1'
_atom_sites_solution_hydrogens   ' .'
_atom_sites_solution_primary     ' ?'
_atom_sites_solution_secondary   ' ?'
_cell_angle_alpha                90
_cell_angle_beta                 97.3960
_cell_angle_gamma                90
_cell_formula_units_Z            4
_cell_length_a                   7.19990
_cell_length_b                   7.55270
_cell_length_c                   20.44380
_cell_volume                     1102.458
_computing_publication_material  'PLATON (Spek, 2003)'
_diffrn_radiation_probe          x-ray
_diffrn_radiation_type           MoK\a
_diffrn_radiation_wavelength     0.71073
_diffrn_reflns_reduction_process
;
;
_exptl_absorpt_coefficient_mu    0.641
_exptl_absorpt_correction_type   ' ?'
_exptl_crystal_colour            ' ?'
_exptl_crystal_density_diffrn    1.496
_exptl_crystal_density_method    'Not Measured'
_exptl_crystal_description       ' ?'
_exptl_crystal_F_000             496
_refine_ls_extinction_method     ' ?'
_refine_ls_hydrogen_treatment    ' .'
_refine_ls_number_restraints     0
_refine_ls_weighting_scheme      ?
_iucr_refine_instructions_details
;
;
_cod_data_source_file            XXII-1_Goto_Obata.cif
_cod_data_source_block           XXII_R037
_cod_original_sg_symbol_H-M      'P 21/c'
_cod_struct_determination_method theoretical
_cod_database_code               2107777
loop_
_symmetry_equiv_pos_site_id
_symmetry_equiv_pos_as_xyz
1 x,y,z
2 -x,1/2+y,1/2-z
3 -x,-y,-z
4 x,1/2-y,1/2+z
loop_
_atom_site_label
_atom_site_type_symbol
_atom_site_thermal_displace_type
_atom_site_fract_x
_atom_site_fract_y
_atom_site_fract_z
_atom_site_occupancy
_atom_site_U_iso_or_equiv
S1 S Uiso 0.47820 0.67696 0.07947 1.000 0.0500
S2 S Uiso 0.04669 0.68001 0.12754 1.000 0.0500
S3 S Uiso 0.03100 0.79840 -0.06910 1.000 0.0500
N1 N Uiso -0.05341 0.75581 0.00117 1.000 0.0500
N2 N Uiso 0.70243 0.87814 0.23636 1.000 0.0500
N3 N Uiso 0.21851 0.88677 0.29019 1.000 0.0500
N4 N Uiso 0.53345 0.84373 -0.10557 1.000 0.0500
C1 C Uiso 0.42431 0.75273 0.15584 1.000 0.0500
C2 C Uiso 0.25084 0.75639 0.17454 1.000 0.0500
C3 C Uiso 0.09091 0.72337 0.04709 1.000 0.0500
C4 C Uiso 0.27265 0.72711 0.02714 1.000 0.0500
C5 C Uiso 0.26157 0.77538 -0.03830 1.000 0.0500
C6 C Uiso 0.58111 0.81777 0.20016 1.000 0.0500
C7 C Uiso 0.22672 0.82592 0.23840 1.000 0.0500
C8 C Uiso 0.41115 0.80800 -0.07597 1.000 0.0500
loop_
_atom_type_symbol
_atom_type_description
_atom_type_scat_dispersion_real
_atom_type_scat_dispersion_imag
_atom_type_scat_source
C C 0.0033 0.0016 ' International Tables Vol C Tables 4.2.6.8 and 6.1.1.4'
N N 0.0061 0.0033 ' International Tables Vol C Tables 4.2.6.8 and 6.1.1.4'
S S 0.1246 0.1234 ' International Tables Vol C Tables 4.2.6.8 and 6.1.1.4'
loop_
_geom_angle_atom_site_label_1
_geom_angle_atom_site_label_2
_geom_angle_atom_site_label_3
_geom_angle
_geom_angle_publ_flag
C1 S1 C4 101.94 yes
C2 S2 C3 102.33 yes
N1 S3 C5 96.20 yes
S3 N1 C3 107.84 yes
S1 C1 C2 125.23 yes
S1 C1 C6 115.24 yes
C2 C1 C6 119.53 no
S2 C2 C1 125.44 yes
S2 C2 C7 115.37 yes
C1 C2 C7 119.19 no
S2 C3 N1 118.60 yes
S2 C3 C4 124.11 yes
N1 C3 C4 117.29 yes
S1 C4 C3 123.87 yes
S1 C4 C5 126.04 yes
C3 C4 C5 110.09 no
S3 C5 C4 108.47 yes
S3 C5 C8 123.39 yes
C4 C5 C8 128.11 no
N2 C6 C1 176.47 yes
N3 C7 C2 175.65 yes
N4 C8 C5 176.42 yes
loop_
_geom_bond_atom_site_label_1
_geom_bond_atom_site_label_2
_geom_bond_distance
_geom_bond_publ_flag
S1 C1 1.7526 yes
S1 C4 1.7523 yes
S2 C2 1.7473 yes
S2 C3 1.7460 yes
S3 N1 1.6617 yes
S3 C5 1.7069 yes
N1 C3 1.3304 yes
N2 C6 1.1628 yes
N3 C7 1.1627 yes
N4 C8 1.1626 yes
C1 C2 1.3527 no
C1 C6 1.4399 no
C2 C7 1.4383 no
C3 C4 1.4201 no
C4 C5 1.3790 no
C5 C8 1.4238 no
loop_
_geom_torsion_atom_site_label_1
_geom_torsion_atom_site_label_2
_geom_torsion_atom_site_label_3
_geom_torsion_atom_site_label_4
_geom_torsion
_geom_torsion_publ_flag
C1 S1 C4 C5 147.12 no
C4 S1 C1 C2 30.43 no
C4 S1 C1 C6 -148.47 no
C1 S1 C4 C3 -32.84 no
C3 S2 C2 C1 -32.24 no
C3 S2 C2 C7 148.54 no
C2 S2 C3 N1 -151.02 no
C2 S2 C3 C4 28.71 no
C5 S3 N1 C3 -0.45 no
N1 S3 C5 C8 -175.93 no
N1 S3 C5 C4 2.30 no
S3 N1 C3 C4 -1.57 no
S3 N1 C3 S2 178.19 no
C6 C1 C2 C7 0.20 no
S1 C1 C2 C7 -178.66 no
C6 C1 C2 S2 -178.99 no
S1 C1 C2 S2 2.16 no
S2 C3 C4 S1 3.58 no
S2 C3 C4 C5 -176.38 no
N1 C3 C4 C5 3.35 no
N1 C3 C4 S1 -176.68 no
S1 C4 C5 S3 176.67 no
C3 C4 C5 C8 174.76 no
S1 C4 C5 C8 -5.20 no
C3 C4 C5 S3 -3.36 no
