#------------------------------------------------------------------------------
#$Date: 2023-12-05 10:34:00 +0200 (Tue, 05 Dec 2023) $
#$Revision: 288031 $
#$URL: file:///home/coder/svn-repositories/cod/cif/2/10/78/2107821.cif $
#------------------------------------------------------------------------------
#
# This file is available in the Crystallography Open Database (COD),
# http://www.crystallography.net/. The original data for this entry
# were provided by IUCr Journals, http://journals.iucr.org/.
#
# The file may be used within the scientific community so long as
# proper attribution is given to the journal article from which the
# data were obtained.
#
data_2107821
loop_
_publ_author_name
'Reilly, Anthony M.'
'Cooper, Richard I.'
'Adjiman, Claire S.'
'Bhattacharya, Saswata'
'Boese, A. Daniel'
'Brandenburg, Jan Gerit'
'Bygrave, Peter J.'
'Bylsma, Rita'
'Campbell, Josh E.'
'Car, Roberto'
'Case, David H.'
'Chadha, Renu'
'Cole, Jason C.'
'Cosburn, Katherine'
'Cuppen, Herma M.'
'Curtis, Farren'
'Day, Graeme M.'
'DiStasio Jr, Robert A.'
'Dzyabchenko, Alexander'
'van Eijck, Bouke P.'
'Elking, Dennis M.'
'van den Ende, Joost A.'
'Facelli, Julio C.'
'Ferraro, Marta B.'
'Fusti-Molnar, Laszlo'
'Gatsiou, Christina-Anna'
'Gee, Thomas S.'
'de Gelder, Ren\'e'
'Ghiringhelli, Luca M.'
'Goto, Hitoshi'
'Grimme, Stefan'
'Guo, Rui'
'Hofmann, Detlef W. M.'
'Hoja, Johannes'
'Hylton, Rebecca K.'
'Iuzzolino, Luca'
'Jankiewicz, Wojciech'
'de Jong, Dani\"el T.'
'Kendrick, John'
'de Klerk, Niek J. J.'
'Ko, Hsin-Yu'
'Kuleshova, Liudmila N.'
'Li, Xiayue'
'Lohani, Sanjaya'
'Leusen, Frank J. J.'
'Lund, Albert M.'
'Lv, Jian'
'Ma, Yanming'
'Marom, Noa'
'Masunov, Art\"em E.'
'McCabe, Patrick'
'McMahon, David P.'
'Meekes, Hugo'
'Metz, Michael P.'
'Misquitta, Alston J.'
'Mohamed, Sharmarke'
'Monserrat, Bartomeu'
'Needs, Richard J.'
'Neumann, Marcus A.'
'Nyman, Jonas'
'Obata, Shigeaki'
'Oberhofer, Harald'
'Oganov, Artem R.'
'Orendt, Anita M.'
'Pagola, Gabriel I.'
'Pantelides, Constantinos C.'
'Pickard, Chris J.'
'Podeszwa, Rafal'
'Price, Louise S.'
'Price, Sarah L.'
'Pulido, Angeles'
'Read, Murray G.'
'Reuter, Karsten'
'Schneider, Elia'
'Schober, Christoph'
'Shields, Gregory P.'
'Singh, Pawanpreet'
'Sugden, Isaac J.'
'Szalewicz, Krzysztof'
'Taylor, Christopher R.'
'Tkatchenko, Alexandre'
'Tuckerman, Mark E.'
'Vacarro, Francesca'
'Vasileiadis, Manolis'
'Vazquez-Mayagoitia, Alvaro'
'Vogt, Leslie'
'Wang, Yanchao'
'Watson, Rona E.'
'de Wijs, Gilles A.'
'Yang, Jack'
'Zhu, Qiang'
'Groom, Colin R.'
_publ_section_title
;
 Report on the sixth blind test of organic crystal structure prediction
 methods
;
_journal_issue                   4
_journal_name_full               'Acta Crystallographica Section B'
_journal_page_first              439
_journal_page_last               459
_journal_paper_doi               10.1107/S2052520616007447
_journal_volume                  72
_journal_year                    2016
_chemical_compound_source        'see text'
_chemical_formula_moiety         'C8 N4 S3'
_chemical_formula_sum            'C8 N4 S3'
_chemical_formula_weight         248.33
_space_group_IT_number           33
_symmetry_cell_setting           orthorhombic
_symmetry_Int_Tables_number      33
_symmetry_space_group_name_Hall  'P 2c -2n'
_symmetry_space_group_name_H-M   'P n a 21'
_atom_sites_solution_hydrogens   ' .'
_atom_sites_solution_primary     ' ?'
_atom_sites_solution_secondary   ' ?'
_cell_angle_alpha                90
_cell_angle_beta                 90
_cell_angle_gamma                90
_cell_formula_units_Z            4
_cell_length_a                   24.04110
_cell_length_b                   6.09910
_cell_length_c                   7.49290
_cell_volume                     1098.677
_computing_publication_material  'PLATON (Spek, 2003)'
_diffrn_radiation_probe          x-ray
_diffrn_radiation_type           MoK\a
_diffrn_radiation_wavelength     0.71073
_diffrn_reflns_reduction_process
;
;
_exptl_absorpt_coefficient_mu    0.643
_exptl_absorpt_correction_type   ' ?'
_exptl_crystal_colour            ' ?'
_exptl_crystal_density_diffrn    1.501
_exptl_crystal_density_method    'Not Measured'
_exptl_crystal_description       ' ?'
_exptl_crystal_F_000             496
_refine_ls_abs_structure_details 'Flack (1983)'
_refine_ls_extinction_method     ' ?'
_refine_ls_hydrogen_treatment    ' .'
_refine_ls_number_restraints     0
_refine_ls_weighting_scheme      ?
_iucr_refine_instructions_details
;
;
_cod_data_source_file            XXII-1_Goto_Obata.cif
_cod_data_source_block           XXII_R081
_cod_struct_determination_method theoretical
_cod_database_code               2107821
loop_
_symmetry_equiv_pos_site_id
_symmetry_equiv_pos_as_xyz
1 x,y,z
2 -x,-y,1/2+z
3 1/2-x,1/2+y,1/2+z
4 1/2+x,1/2-y,z
loop_
_atom_site_label
_atom_site_type_symbol
_atom_site_thermal_displace_type
_atom_site_fract_x
_atom_site_fract_y
_atom_site_fract_z
_atom_site_occupancy
_atom_site_U_iso_or_equiv
S1 S Uiso 0.11260 1.06548 0.24477 1.000 0.0500
S2 S Uiso 0.15141 0.61220 0.03267 1.000 0.0500
S3 S Uiso 0.21711 0.64075 0.54015 1.000 0.0500
N1 N Uiso 0.20547 0.53543 0.33861 1.000 0.0500
N2 N Uiso -0.03489 1.03485 0.12080 1.000 0.0500
N3 N Uiso 0.00877 0.48702 -0.13835 1.000 0.0500
N4 N Uiso 0.15946 1.15545 0.76071 1.000 0.0500
C1 C Uiso 0.06727 0.89763 0.12194 1.000 0.0500
C2 C Uiso 0.08282 0.71234 0.03605 1.000 0.0500
C3 C Uiso 0.17230 0.67309 0.25135 1.000 0.0500
C4 C Uiso 0.15549 0.86641 0.34221 1.000 0.0500
C5 C Uiso 0.17732 0.87029 0.51209 1.000 0.0500
C6 C Uiso 0.01064 0.97093 0.11838 1.000 0.0500
C7 C Uiso 0.04257 0.58537 -0.06125 1.000 0.0500
C8 C Uiso 0.16830 1.02962 0.64777 1.000 0.0500
loop_
_atom_type_symbol
_atom_type_description
_atom_type_scat_dispersion_real
_atom_type_scat_dispersion_imag
_atom_type_scat_source
C C 0.0033 0.0016 ' International Tables Vol C Tables 4.2.6.8 and 6.1.1.4'
N N 0.0061 0.0033 ' International Tables Vol C Tables 4.2.6.8 and 6.1.1.4'
S S 0.1246 0.1234 ' International Tables Vol C Tables 4.2.6.8 and 6.1.1.4'
loop_
_geom_angle_atom_site_label_1
_geom_angle_atom_site_label_2
_geom_angle_atom_site_label_3
_geom_angle
_geom_angle_publ_flag
C1 S1 C4 100.35 yes
C2 S2 C3 100.46 yes
N1 S3 C5 96.34 yes
S3 N1 C3 107.65 yes
S1 C1 C2 124.39 yes
S1 C1 C6 114.68 yes
C2 C1 C6 120.94 no
S2 C2 C1 123.78 yes
S2 C2 C7 115.89 yes
C1 C2 C7 120.33 no
S2 C3 N1 119.83 yes
S2 C3 C4 122.84 yes
N1 C3 C4 117.33 yes
S1 C4 C3 122.89 yes
S1 C4 C5 126.69 yes
C3 C4 C5 110.42 no
S3 C5 C4 108.24 yes
S3 C5 C8 123.85 yes
C4 C5 C8 127.88 no
N2 C6 C1 177.58 yes
N3 C7 C2 177.94 yes
N4 C8 C5 177.69 yes
loop_
_geom_bond_atom_site_label_1
_geom_bond_atom_site_label_2
_geom_bond_distance
_geom_bond_publ_flag
S1 C1 1.7558 yes
S1 C4 1.7523 yes
S2 C2 1.7586 yes
S2 C3 1.7536 yes
S3 N1 1.6648 yes
S3 C5 1.7086 yes
N1 C3 1.3298 yes
N2 C6 1.1621 yes
N3 C7 1.1636 yes
N4 C8 1.1620 yes
C1 C2 1.3532 no
C1 C6 1.4332 no
C2 C7 1.4379 no
C3 C4 1.4202 no
C4 C5 1.3770 no
C5 C8 1.4230 no
loop_
_geom_torsion_atom_site_label_1
_geom_torsion_atom_site_label_2
_geom_torsion_atom_site_label_3
_geom_torsion_atom_site_label_4
_geom_torsion
_geom_torsion_publ_flag
C1 S1 C4 C5 -142.26 no
C4 S1 C1 C2 -37.44 no
C4 S1 C1 C6 142.36 no
C1 S1 C4 C3 37.40 no
C3 S2 C2 C1 38.12 no
C3 S2 C2 C7 -142.44 no
C2 S2 C3 N1 143.32 no
C2 S2 C3 C4 -36.93 no
C5 S3 N1 C3 0.44 no
N1 S3 C5 C8 177.18 no
N1 S3 C5 C4 -1.05 no
S3 N1 C3 C4 0.29 no
S3 N1 C3 S2 -179.94 no
C6 C1 C2 C7 0.17 no
S1 C1 C2 C7 179.96 no
C6 C1 C2 S2 179.58 no
S1 C1 C2 S2 -0.62 no
S2 C3 C4 S1 -0.55 no
S2 C3 C4 C5 179.16 no
N1 C3 C4 C5 -1.09 no
N1 C3 C4 S1 179.20 no
S1 C4 C5 S3 -179.00 no
C3 C4 C5 C8 -176.83 no
S1 C4 C5 C8 2.86 no
C3 C4 C5 S3 1.31 no
