#------------------------------------------------------------------------------
#$Date: 2023-12-05 10:34:00 +0200 (Tue, 05 Dec 2023) $
#$Revision: 288031 $
#$URL: file:///home/coder/svn-repositories/cod/cif/2/10/77/2107779.cif $
#------------------------------------------------------------------------------
#
# This file is available in the Crystallography Open Database (COD),
# http://www.crystallography.net/. The original data for this entry
# were provided by IUCr Journals, http://journals.iucr.org/.
#
# The file may be used within the scientific community so long as
# proper attribution is given to the journal article from which the
# data were obtained.
#
data_2107779
loop_
_publ_author_name
'Reilly, Anthony M.'
'Cooper, Richard I.'
'Adjiman, Claire S.'
'Bhattacharya, Saswata'
'Boese, A. Daniel'
'Brandenburg, Jan Gerit'
'Bygrave, Peter J.'
'Bylsma, Rita'
'Campbell, Josh E.'
'Car, Roberto'
'Case, David H.'
'Chadha, Renu'
'Cole, Jason C.'
'Cosburn, Katherine'
'Cuppen, Herma M.'
'Curtis, Farren'
'Day, Graeme M.'
'DiStasio Jr, Robert A.'
'Dzyabchenko, Alexander'
'van Eijck, Bouke P.'
'Elking, Dennis M.'
'van den Ende, Joost A.'
'Facelli, Julio C.'
'Ferraro, Marta B.'
'Fusti-Molnar, Laszlo'
'Gatsiou, Christina-Anna'
'Gee, Thomas S.'
'de Gelder, Ren\'e'
'Ghiringhelli, Luca M.'
'Goto, Hitoshi'
'Grimme, Stefan'
'Guo, Rui'
'Hofmann, Detlef W. M.'
'Hoja, Johannes'
'Hylton, Rebecca K.'
'Iuzzolino, Luca'
'Jankiewicz, Wojciech'
'de Jong, Dani\"el T.'
'Kendrick, John'
'de Klerk, Niek J. J.'
'Ko, Hsin-Yu'
'Kuleshova, Liudmila N.'
'Li, Xiayue'
'Lohani, Sanjaya'
'Leusen, Frank J. J.'
'Lund, Albert M.'
'Lv, Jian'
'Ma, Yanming'
'Marom, Noa'
'Masunov, Art\"em E.'
'McCabe, Patrick'
'McMahon, David P.'
'Meekes, Hugo'
'Metz, Michael P.'
'Misquitta, Alston J.'
'Mohamed, Sharmarke'
'Monserrat, Bartomeu'
'Needs, Richard J.'
'Neumann, Marcus A.'
'Nyman, Jonas'
'Obata, Shigeaki'
'Oberhofer, Harald'
'Oganov, Artem R.'
'Orendt, Anita M.'
'Pagola, Gabriel I.'
'Pantelides, Constantinos C.'
'Pickard, Chris J.'
'Podeszwa, Rafal'
'Price, Louise S.'
'Price, Sarah L.'
'Pulido, Angeles'
'Read, Murray G.'
'Reuter, Karsten'
'Schneider, Elia'
'Schober, Christoph'
'Shields, Gregory P.'
'Singh, Pawanpreet'
'Sugden, Isaac J.'
'Szalewicz, Krzysztof'
'Taylor, Christopher R.'
'Tkatchenko, Alexandre'
'Tuckerman, Mark E.'
'Vacarro, Francesca'
'Vasileiadis, Manolis'
'Vazquez-Mayagoitia, Alvaro'
'Vogt, Leslie'
'Wang, Yanchao'
'Watson, Rona E.'
'de Wijs, Gilles A.'
'Yang, Jack'
'Zhu, Qiang'
'Groom, Colin R.'
_publ_section_title
;
 Report on the sixth blind test of organic crystal structure prediction
 methods
;
_journal_issue                   4
_journal_name_full               'Acta Crystallographica Section B'
_journal_page_first              439
_journal_page_last               459
_journal_paper_doi               10.1107/S2052520616007447
_journal_volume                  72
_journal_year                    2016
_chemical_compound_source        'see text'
_chemical_formula_moiety         'C8 N4 S3'
_chemical_formula_sum            'C8 N4 S3'
_chemical_formula_weight         248.33
_space_group_IT_number           7
_symmetry_cell_setting           monoclinic
_symmetry_Int_Tables_number      7
_symmetry_space_group_name_Hall  'P -2yc'
_symmetry_space_group_name_H-M   'P 1 c 1'
_atom_sites_solution_hydrogens   ' .'
_atom_sites_solution_primary     ' ?'
_atom_sites_solution_secondary   ' ?'
_cell_angle_alpha                90
_cell_angle_beta                 127.2950
_cell_angle_gamma                90
_cell_formula_units_Z            2
_cell_length_a                   7.08370
_cell_length_b                   10.29900
_cell_length_c                   9.44610
_cell_volume                     548.229
_computing_publication_material  'PLATON (Spek, 2003)'
_diffrn_radiation_probe          x-ray
_diffrn_radiation_type           MoK\a
_diffrn_radiation_wavelength     0.71073
_diffrn_reflns_reduction_process
;
;
_exptl_absorpt_coefficient_mu    0.644
_exptl_absorpt_correction_type   ' ?'
_exptl_crystal_colour            ' ?'
_exptl_crystal_density_diffrn    1.504
_exptl_crystal_density_method    'Not Measured'
_exptl_crystal_description       ' ?'
_exptl_crystal_F_000             248
_refine_ls_abs_structure_details 'Flack (1983)'
_refine_ls_extinction_method     ' ?'
_refine_ls_hydrogen_treatment    ' .'
_refine_ls_number_restraints     0
_refine_ls_weighting_scheme      ?
_iucr_refine_instructions_details
;
;
_cod_data_source_file            XXII-1_Goto_Obata.cif
_cod_data_source_block           XXII_R039
_cod_original_sg_symbol_H-M      'P c'
_cod_struct_determination_method theoretical
_cod_database_code               2107779
loop_
_symmetry_equiv_pos_site_id
_symmetry_equiv_pos_as_xyz
1 x,y,z
2 x,-y,1/2+z
loop_
_atom_site_label
_atom_site_type_symbol
_atom_site_thermal_displace_type
_atom_site_fract_x
_atom_site_fract_y
_atom_site_fract_z
_atom_site_occupancy
_atom_site_U_iso_or_equiv
S1 S Uiso 0.87214 0.34872 0.36449 1.000 0.0500
S2 S Uiso 0.40684 0.22552 0.33786 1.000 0.0500
S3 S Uiso 0.43132 0.62281 0.36742 1.000 0.0500
N1 N Uiso 0.33581 0.47448 0.36105 1.000 0.0500
N2 N Uiso 1.25607 0.06627 0.59671 1.000 0.0500
N3 N Uiso 0.72241 -0.07917 0.57133 1.000 0.0500
N4 N Uiso 0.91309 0.73622 0.33262 1.000 0.0500
C1 C Uiso 0.86579 0.19811 0.44763 1.000 0.0500
C2 C Uiso 0.68083 0.14908 0.43732 1.000 0.0500
C3 C Uiso 0.47696 0.39016 0.35949 1.000 0.0500
C4 C Uiso 0.66849 0.44203 0.36707 1.000 0.0500
C5 C Uiso 0.66051 0.57600 0.36540 1.000 0.0500
C6 C Uiso 1.07923 0.12307 0.52875 1.000 0.0500
C7 C Uiso 0.70050 0.02271 0.50998 1.000 0.0500
C8 C Uiso 0.80549 0.66515 0.35464 1.000 0.0500
loop_
_atom_type_symbol
_atom_type_description
_atom_type_scat_dispersion_real
_atom_type_scat_dispersion_imag
_atom_type_scat_source
C C 0.0033 0.0016 ' International Tables Vol C Tables 4.2.6.8 and 6.1.1.4'
N N 0.0061 0.0033 ' International Tables Vol C Tables 4.2.6.8 and 6.1.1.4'
S S 0.1246 0.1234 ' International Tables Vol C Tables 4.2.6.8 and 6.1.1.4'
loop_
_geom_angle_atom_site_label_1
_geom_angle_atom_site_label_2
_geom_angle_atom_site_label_3
_geom_angle
_geom_angle_publ_flag
C1 S1 C4 103.61 yes
C2 S2 C3 103.30 yes
N1 S3 C5 96.29 yes
S3 N1 C3 108.00 yes
S1 C1 C2 125.86 yes
S1 C1 C6 114.25 yes
C2 C1 C6 119.88 no
S2 C2 C1 125.61 yes
S2 C2 C7 114.75 yes
C1 C2 C7 119.63 no
S2 C3 N1 118.24 yes
S2 C3 C4 124.59 yes
N1 C3 C4 117.10 yes
S1 C4 C3 124.40 yes
S1 C4 C5 125.34 yes
C3 C4 C5 110.14 no
S3 C5 C4 108.37 yes
S3 C5 C8 123.40 yes
C4 C5 C8 128.16 no
N2 C6 C1 177.70 yes
N3 C7 C2 178.32 yes
N4 C8 C5 175.03 yes
loop_
_geom_bond_atom_site_label_1
_geom_bond_atom_site_label_2
_geom_bond_distance
_geom_bond_publ_flag
S1 C1 1.7515 yes
S1 C4 1.7458 yes
S2 C2 1.7492 yes
S2 C3 1.7437 yes
S3 N1 1.6570 yes
S3 C5 1.7047 yes
N1 C3 1.3311 yes
N2 C6 1.1615 yes
N3 C7 1.1627 yes
N4 C8 1.1628 yes
C1 C2 1.3515 no
C1 C6 1.4375 no
C2 C7 1.4382 no
C3 C4 1.4190 no
C4 C5 1.3806 no
C5 C8 1.4264 no
loop_
_geom_torsion_atom_site_label_1
_geom_torsion_atom_site_label_2
_geom_torsion_atom_site_label_3
_geom_torsion_atom_site_label_4
_geom_torsion
_geom_torsion_publ_flag
C1 S1 C4 C5 159.39 no
C4 S1 C1 C2 26.60 no
C4 S1 C1 C6 -154.97 no
C1 S1 C4 C3 -24.92 no
C3 S2 C2 C1 -27.67 no
C3 S2 C2 C7 153.27 no
C2 S2 C3 N1 -154.72 no
C2 S2 C3 C4 28.48 no
C5 S3 N1 C3 0.70 no
N1 S3 C5 C8 174.72 no
N1 S3 C5 C4 -2.44 no
S3 N1 C3 C4 1.27 no
S3 N1 C3 S2 -175.78 no
C6 C1 C2 C7 0.86 no
S1 C1 C2 C7 179.20 no
C6 C1 C2 S2 -178.15 no
S1 C1 C2 S2 0.19 no
S2 C3 C4 S1 -2.56 no
S2 C3 C4 C5 173.69 no
N1 C3 C4 C5 -3.14 no
N1 C3 C4 S1 -179.40 no
S1 C4 C5 S3 179.56 no
C3 C4 C5 C8 -173.63 no
S1 C4 C5 C8 2.57 no
C3 C4 C5 S3 3.35 no
