#------------------------------------------------------------------------------
#$Date: 2023-12-05 10:34:00 +0200 (Tue, 05 Dec 2023) $
#$Revision: 288031 $
#$URL: file:///home/coder/svn-repositories/cod/cif/2/10/78/2107804.cif $
#------------------------------------------------------------------------------
#
# This file is available in the Crystallography Open Database (COD),
# http://www.crystallography.net/. The original data for this entry
# were provided by IUCr Journals, http://journals.iucr.org/.
#
# The file may be used within the scientific community so long as
# proper attribution is given to the journal article from which the
# data were obtained.
#
data_2107804
loop_
_publ_author_name
'Reilly, Anthony M.'
'Cooper, Richard I.'
'Adjiman, Claire S.'
'Bhattacharya, Saswata'
'Boese, A. Daniel'
'Brandenburg, Jan Gerit'
'Bygrave, Peter J.'
'Bylsma, Rita'
'Campbell, Josh E.'
'Car, Roberto'
'Case, David H.'
'Chadha, Renu'
'Cole, Jason C.'
'Cosburn, Katherine'
'Cuppen, Herma M.'
'Curtis, Farren'
'Day, Graeme M.'
'DiStasio Jr, Robert A.'
'Dzyabchenko, Alexander'
'van Eijck, Bouke P.'
'Elking, Dennis M.'
'van den Ende, Joost A.'
'Facelli, Julio C.'
'Ferraro, Marta B.'
'Fusti-Molnar, Laszlo'
'Gatsiou, Christina-Anna'
'Gee, Thomas S.'
'de Gelder, Ren\'e'
'Ghiringhelli, Luca M.'
'Goto, Hitoshi'
'Grimme, Stefan'
'Guo, Rui'
'Hofmann, Detlef W. M.'
'Hoja, Johannes'
'Hylton, Rebecca K.'
'Iuzzolino, Luca'
'Jankiewicz, Wojciech'
'de Jong, Dani\"el T.'
'Kendrick, John'
'de Klerk, Niek J. J.'
'Ko, Hsin-Yu'
'Kuleshova, Liudmila N.'
'Li, Xiayue'
'Lohani, Sanjaya'
'Leusen, Frank J. J.'
'Lund, Albert M.'
'Lv, Jian'
'Ma, Yanming'
'Marom, Noa'
'Masunov, Art\"em E.'
'McCabe, Patrick'
'McMahon, David P.'
'Meekes, Hugo'
'Metz, Michael P.'
'Misquitta, Alston J.'
'Mohamed, Sharmarke'
'Monserrat, Bartomeu'
'Needs, Richard J.'
'Neumann, Marcus A.'
'Nyman, Jonas'
'Obata, Shigeaki'
'Oberhofer, Harald'
'Oganov, Artem R.'
'Orendt, Anita M.'
'Pagola, Gabriel I.'
'Pantelides, Constantinos C.'
'Pickard, Chris J.'
'Podeszwa, Rafal'
'Price, Louise S.'
'Price, Sarah L.'
'Pulido, Angeles'
'Read, Murray G.'
'Reuter, Karsten'
'Schneider, Elia'
'Schober, Christoph'
'Shields, Gregory P.'
'Singh, Pawanpreet'
'Sugden, Isaac J.'
'Szalewicz, Krzysztof'
'Taylor, Christopher R.'
'Tkatchenko, Alexandre'
'Tuckerman, Mark E.'
'Vacarro, Francesca'
'Vasileiadis, Manolis'
'Vazquez-Mayagoitia, Alvaro'
'Vogt, Leslie'
'Wang, Yanchao'
'Watson, Rona E.'
'de Wijs, Gilles A.'
'Yang, Jack'
'Zhu, Qiang'
'Groom, Colin R.'
_publ_section_title
;
 Report on the sixth blind test of organic crystal structure prediction
 methods
;
_journal_issue                   4
_journal_name_full               'Acta Crystallographica Section B'
_journal_page_first              439
_journal_page_last               459
_journal_paper_doi               10.1107/S2052520616007447
_journal_volume                  72
_journal_year                    2016
_chemical_compound_source        'see text'
_chemical_formula_moiety         'C8 N4 S3'
_chemical_formula_sum            'C8 N4 S3'
_chemical_formula_weight         248.33
_space_group_IT_number           4
_symmetry_cell_setting           monoclinic
_symmetry_Int_Tables_number      4
_symmetry_space_group_name_Hall  'P 2yb'
_symmetry_space_group_name_H-M   'P 1 21 1'
_atom_sites_solution_hydrogens   ' .'
_atom_sites_solution_primary     ' ?'
_atom_sites_solution_secondary   ' ?'
_cell_angle_alpha                90
_cell_angle_beta                 104.6350
_cell_angle_gamma                90
_cell_formula_units_Z            2
_cell_length_a                   6.88490
_cell_length_b                   8.16840
_cell_length_c                   10.38980
_cell_volume                     565.350
_computing_publication_material  'PLATON (Spek, 2003)'
_diffrn_radiation_probe          x-ray
_diffrn_radiation_type           MoK\a
_diffrn_radiation_wavelength     0.71073
_diffrn_reflns_reduction_process
;
;
_exptl_absorpt_coefficient_mu    0.625
_exptl_absorpt_correction_type   ' ?'
_exptl_crystal_colour            ' ?'
_exptl_crystal_density_diffrn    1.459
_exptl_crystal_density_method    'Not Measured'
_exptl_crystal_description       ' ?'
_exptl_crystal_F_000             248
_refine_ls_abs_structure_details 'Flack (1983)'
_refine_ls_extinction_method     ' ?'
_refine_ls_hydrogen_treatment    ' .'
_refine_ls_number_restraints     0
_refine_ls_weighting_scheme      ?
_iucr_refine_instructions_details
;
;
_cod_data_source_file            XXII-1_Goto_Obata.cif
_cod_data_source_block           XXII_R064
_cod_original_sg_symbol_H-M      'P 21'
_cod_struct_determination_method theoretical
_cod_database_code               2107804
loop_
_symmetry_equiv_pos_site_id
_symmetry_equiv_pos_as_xyz
1 x,y,z
2 -x,1/2+y,-z
loop_
_atom_site_label
_atom_site_type_symbol
_atom_site_thermal_displace_type
_atom_site_fract_x
_atom_site_fract_y
_atom_site_fract_z
_atom_site_occupancy
_atom_site_U_iso_or_equiv
S1 S Uiso 0.50831 0.68369 0.28433 1.000 0.0500
S2 S Uiso 0.08215 0.86315 0.30336 1.000 0.0500
S3 S Uiso 0.06896 0.36645 0.36705 1.000 0.0500
N1 N Uiso -0.01349 0.55780 0.35667 1.000 0.0500
N2 N Uiso 0.54688 0.90706 -0.01908 1.000 0.0500
N3 N Uiso 0.03638 1.12512 0.00899 1.000 0.0500
N4 N Uiso 0.55239 0.17736 0.33813 1.000 0.0500
C1 C Uiso 0.37967 0.82967 0.17029 1.000 0.0500
C2 C Uiso 0.20624 0.90207 0.17811 1.000 0.0500
C3 C Uiso 0.12585 0.65248 0.32681 1.000 0.0500
C4 C Uiso 0.30681 0.57546 0.31721 1.000 0.0500
C5 C Uiso 0.29755 0.40965 0.33879 1.000 0.0500
C6 C Uiso 0.47326 0.87229 0.06622 1.000 0.0500
C7 C Uiso 0.11234 1.02306 0.08252 1.000 0.0500
C8 C Uiso 0.44342 0.28637 0.33768 1.000 0.0500
loop_
_atom_type_symbol
_atom_type_description
_atom_type_scat_dispersion_real
_atom_type_scat_dispersion_imag
_atom_type_scat_source
C C 0.0033 0.0016 ' International Tables Vol C Tables 4.2.6.8 and 6.1.1.4'
N N 0.0061 0.0033 ' International Tables Vol C Tables 4.2.6.8 and 6.1.1.4'
S S 0.1246 0.1234 ' International Tables Vol C Tables 4.2.6.8 and 6.1.1.4'
loop_
_geom_angle_atom_site_label_1
_geom_angle_atom_site_label_2
_geom_angle_atom_site_label_3
_geom_angle
_geom_angle_publ_flag
C1 S1 C4 100.68 yes
C2 S2 C3 100.49 yes
N1 S3 C5 96.27 yes
S3 N1 C3 107.97 yes
S1 C1 C2 123.98 yes
S1 C1 C6 115.32 yes
C2 C1 C6 120.69 no
S2 C2 C1 124.54 yes
S2 C2 C7 114.78 yes
C1 C2 C7 120.65 no
S2 C3 N1 119.68 yes
S2 C3 C4 123.18 yes
N1 C3 C4 117.14 yes
S1 C4 C3 122.83 yes
S1 C4 C5 126.89 yes
C3 C4 C5 110.27 no
S3 C5 C4 108.28 yes
S3 C5 C8 122.49 yes
C4 C5 C8 129.22 no
N2 C6 C1 179.20 yes
N3 C7 C2 177.43 yes
N4 C8 C5 175.02 yes
loop_
_geom_bond_atom_site_label_1
_geom_bond_atom_site_label_2
_geom_bond_distance
_geom_bond_publ_flag
S1 C1 1.7550 yes
S1 C4 1.7500 yes
S2 C2 1.7568 yes
S2 C3 1.7533 yes
S3 N1 1.6571 yes
S3 C5 1.7091 yes
N1 C3 1.3286 yes
N2 C6 1.1619 yes
N3 C7 1.1620 yes
N4 C8 1.1636 yes
C1 C2 1.3532 no
C1 C6 1.4344 no
C2 C7 1.4341 no
C3 C4 1.4215 no
C4 C5 1.3769 no
C5 C8 1.4243 no
loop_
_geom_torsion_atom_site_label_1
_geom_torsion_atom_site_label_2
_geom_torsion_atom_site_label_3
_geom_torsion_atom_site_label_4
_geom_torsion
_geom_torsion_publ_flag
C1 S1 C4 C5 143.38 no
C4 S1 C1 C2 37.14 no
C4 S1 C1 C6 -144.12 no
C1 S1 C4 C3 -37.44 no
C3 S2 C2 C1 -37.00 no
C3 S2 C2 C7 144.61 no
C2 S2 C3 N1 -145.40 no
C2 S2 C3 C4 35.45 no
C5 S3 N1 C3 2.52 no
N1 S3 C5 C8 179.13 no
N1 S3 C5 C4 -1.72 no
S3 N1 C3 C4 -2.74 no
S3 N1 C3 S2 178.05 no
C6 C1 C2 C7 -0.04 no
S1 C1 C2 C7 178.63 no
C6 C1 C2 S2 -178.33 no
S1 C1 C2 S2 0.33 no
S2 C3 C4 S1 1.41 no
S2 C3 C4 C5 -179.30 no
N1 C3 C4 C5 1.53 no
N1 C3 C4 S1 -177.77 no
S1 C4 C5 S3 179.70 no
C3 C4 C5 C8 179.52 no
S1 C4 C5 C8 -1.22 no
C3 C4 C5 S3 0.44 no
