#------------------------------------------------------------------------------
#$Date: 2023-12-05 10:34:00 +0200 (Tue, 05 Dec 2023) $
#$Revision: 288031 $
#$URL: file:///home/coder/svn-repositories/cod/cif/2/10/77/2107767.cif $
#------------------------------------------------------------------------------
#
# This file is available in the Crystallography Open Database (COD),
# http://www.crystallography.net/. The original data for this entry
# were provided by IUCr Journals, http://journals.iucr.org/.
#
# The file may be used within the scientific community so long as
# proper attribution is given to the journal article from which the
# data were obtained.
#
data_2107767
loop_
_publ_author_name
'Reilly, Anthony M.'
'Cooper, Richard I.'
'Adjiman, Claire S.'
'Bhattacharya, Saswata'
'Boese, A. Daniel'
'Brandenburg, Jan Gerit'
'Bygrave, Peter J.'
'Bylsma, Rita'
'Campbell, Josh E.'
'Car, Roberto'
'Case, David H.'
'Chadha, Renu'
'Cole, Jason C.'
'Cosburn, Katherine'
'Cuppen, Herma M.'
'Curtis, Farren'
'Day, Graeme M.'
'DiStasio Jr, Robert A.'
'Dzyabchenko, Alexander'
'van Eijck, Bouke P.'
'Elking, Dennis M.'
'van den Ende, Joost A.'
'Facelli, Julio C.'
'Ferraro, Marta B.'
'Fusti-Molnar, Laszlo'
'Gatsiou, Christina-Anna'
'Gee, Thomas S.'
'de Gelder, Ren\'e'
'Ghiringhelli, Luca M.'
'Goto, Hitoshi'
'Grimme, Stefan'
'Guo, Rui'
'Hofmann, Detlef W. M.'
'Hoja, Johannes'
'Hylton, Rebecca K.'
'Iuzzolino, Luca'
'Jankiewicz, Wojciech'
'de Jong, Dani\"el T.'
'Kendrick, John'
'de Klerk, Niek J. J.'
'Ko, Hsin-Yu'
'Kuleshova, Liudmila N.'
'Li, Xiayue'
'Lohani, Sanjaya'
'Leusen, Frank J. J.'
'Lund, Albert M.'
'Lv, Jian'
'Ma, Yanming'
'Marom, Noa'
'Masunov, Art\"em E.'
'McCabe, Patrick'
'McMahon, David P.'
'Meekes, Hugo'
'Metz, Michael P.'
'Misquitta, Alston J.'
'Mohamed, Sharmarke'
'Monserrat, Bartomeu'
'Needs, Richard J.'
'Neumann, Marcus A.'
'Nyman, Jonas'
'Obata, Shigeaki'
'Oberhofer, Harald'
'Oganov, Artem R.'
'Orendt, Anita M.'
'Pagola, Gabriel I.'
'Pantelides, Constantinos C.'
'Pickard, Chris J.'
'Podeszwa, Rafal'
'Price, Louise S.'
'Price, Sarah L.'
'Pulido, Angeles'
'Read, Murray G.'
'Reuter, Karsten'
'Schneider, Elia'
'Schober, Christoph'
'Shields, Gregory P.'
'Singh, Pawanpreet'
'Sugden, Isaac J.'
'Szalewicz, Krzysztof'
'Taylor, Christopher R.'
'Tkatchenko, Alexandre'
'Tuckerman, Mark E.'
'Vacarro, Francesca'
'Vasileiadis, Manolis'
'Vazquez-Mayagoitia, Alvaro'
'Vogt, Leslie'
'Wang, Yanchao'
'Watson, Rona E.'
'de Wijs, Gilles A.'
'Yang, Jack'
'Zhu, Qiang'
'Groom, Colin R.'
_publ_section_title
;
 Report on the sixth blind test of organic crystal structure prediction
 methods
;
_journal_issue                   4
_journal_name_full               'Acta Crystallographica Section B'
_journal_page_first              439
_journal_page_last               459
_journal_paper_doi               10.1107/S2052520616007447
_journal_volume                  72
_journal_year                    2016
_chemical_compound_source        'see text'
_chemical_formula_moiety         'C8 N4 S3'
_chemical_formula_sum            'C8 N4 S3'
_chemical_formula_weight         248.33
_space_group_IT_number           14
_symmetry_cell_setting           monoclinic
_symmetry_Int_Tables_number      14
_symmetry_space_group_name_Hall  '-P 2ybc'
_symmetry_space_group_name_H-M   'P 1 21/c 1'
_atom_sites_solution_hydrogens   ' .'
_atom_sites_solution_primary     ' ?'
_atom_sites_solution_secondary   ' ?'
_cell_angle_alpha                90
_cell_angle_beta                 132.6230
_cell_angle_gamma                90
_cell_formula_units_Z            4
_cell_length_a                   7.08710
_cell_length_b                   20.52000
_cell_length_c                   10.32690
_cell_volume                     1105.072
_computing_publication_material  'PLATON (Spek, 2003)'
_diffrn_radiation_probe          x-ray
_diffrn_radiation_type           MoK\a
_diffrn_radiation_wavelength     0.71073
_diffrn_reflns_reduction_process
;
;
_exptl_absorpt_coefficient_mu    0.639
_exptl_absorpt_correction_type   ' ?'
_exptl_crystal_colour            ' ?'
_exptl_crystal_density_diffrn    1.493
_exptl_crystal_density_method    'Not Measured'
_exptl_crystal_description       ' ?'
_exptl_crystal_F_000             496
_refine_ls_extinction_method     ' ?'
_refine_ls_hydrogen_treatment    ' .'
_refine_ls_number_restraints     0
_refine_ls_weighting_scheme      ?
_iucr_refine_instructions_details
;
;
_cod_data_source_file            XXII-1_Goto_Obata.cif
_cod_data_source_block           XXII_R027
_cod_original_sg_symbol_H-M      'P 21/c'
_cod_struct_determination_method theoretical
_cod_database_code               2107767
loop_
_symmetry_equiv_pos_site_id
_symmetry_equiv_pos_as_xyz
1 x,y,z
2 -x,1/2+y,1/2-z
3 -x,-y,-z
4 x,1/2-y,1/2+z
loop_
_atom_site_label
_atom_site_type_symbol
_atom_site_thermal_displace_type
_atom_site_fract_x
_atom_site_fract_y
_atom_site_fract_z
_atom_site_occupancy
_atom_site_U_iso_or_equiv
S1 S Uiso 0.17590 0.07915 0.17639 1.000 0.0500
S2 S Uiso 0.60698 0.13446 0.16150 1.000 0.0500
S3 S Uiso 0.71678 -0.05955 0.29613 1.000 0.0500
N1 N Uiso 0.76799 0.01133 0.24614 1.000 0.0500
N2 N Uiso 0.19556 0.22696 0.39011 1.000 0.0500
N3 N Uiso 0.70484 0.29150 0.38320 1.000 0.0500
N4 N Uiso 0.25481 -0.10325 0.35383 1.000 0.0500
C1 C Uiso 0.32401 0.15585 0.25173 1.000 0.0500
C2 C Uiso 0.50146 0.17757 0.24896 1.000 0.0500
C3 C Uiso 0.59905 0.05404 0.21366 1.000 0.0500
C4 C Uiso 0.42013 0.03099 0.22346 1.000 0.0500
C5 C Uiso 0.46862 -0.03340 0.27504 1.000 0.0500
C6 C Uiso 0.24875 0.19589 0.32458 1.000 0.0500
C7 C Uiso 0.61575 0.24065 0.32066 1.000 0.0500
C8 C Uiso 0.34549 -0.07294 0.31259 1.000 0.0500
loop_
_atom_type_symbol
_atom_type_description
_atom_type_scat_dispersion_real
_atom_type_scat_dispersion_imag
_atom_type_scat_source
C C 0.0033 0.0016 ' International Tables Vol C Tables 4.2.6.8 and 6.1.1.4'
N N 0.0061 0.0033 ' International Tables Vol C Tables 4.2.6.8 and 6.1.1.4'
S S 0.1246 0.1234 ' International Tables Vol C Tables 4.2.6.8 and 6.1.1.4'
loop_
_geom_angle_atom_site_label_1
_geom_angle_atom_site_label_2
_geom_angle_atom_site_label_3
_geom_angle
_geom_angle_publ_flag
C1 S1 C4 101.59 yes
C2 S2 C3 101.75 yes
N1 S3 C5 96.20 yes
S3 N1 C3 107.82 yes
S1 C1 C2 124.88 yes
S1 C1 C6 114.96 yes
C2 C1 C6 120.15 no
S2 C2 C1 124.87 yes
S2 C2 C7 115.57 yes
C1 C2 C7 119.56 no
S2 C3 N1 119.22 yes
S2 C3 C4 123.57 yes
N1 C3 C4 117.21 yes
S1 C4 C3 123.68 yes
S1 C4 C5 126.08 yes
C3 C4 C5 110.24 no
S3 C5 C4 108.46 yes
S3 C5 C8 123.70 yes
C4 C5 C8 127.80 no
N2 C6 C1 177.16 yes
N3 C7 C2 176.77 yes
N4 C8 C5 175.56 yes
loop_
_geom_bond_atom_site_label_1
_geom_bond_atom_site_label_2
_geom_bond_distance
_geom_bond_publ_flag
S1 C1 1.7545 yes
S1 C4 1.7520 yes
S2 C2 1.7528 yes
S2 C3 1.7486 yes
S3 N1 1.6636 yes
S3 C5 1.7058 yes
N1 C3 1.3305 yes
N2 C6 1.1628 yes
N3 C7 1.1629 yes
N4 C8 1.1627 yes
C1 C2 1.3527 no
C1 C6 1.4384 no
C2 C7 1.4379 no
C3 C4 1.4197 no
C4 C5 1.3783 no
C5 C8 1.4242 no
loop_
_geom_torsion_atom_site_label_1
_geom_torsion_atom_site_label_2
_geom_torsion_atom_site_label_3
_geom_torsion_atom_site_label_4
_geom_torsion
_geom_torsion_publ_flag
C1 S1 C4 C5 145.50 no
C4 S1 C1 C2 32.05 no
C4 S1 C1 C6 -146.30 no
C1 S1 C4 C3 -34.26 no
C3 S2 C2 C1 -34.97 no
C3 S2 C2 C7 145.46 no
C2 S2 C3 N1 -148.46 no
C2 S2 C3 C4 31.64 no
C5 S3 N1 C3 -0.12 no
N1 S3 C5 C8 -176.20 no
N1 S3 C5 C4 1.70 no
S3 N1 C3 C4 -1.53 no
S3 N1 C3 S2 178.56 no
C6 C1 C2 C7 0.54 no
S1 C1 C2 C7 -177.73 no
C6 C1 C2 S2 -179.02 no
S1 C1 C2 S2 2.71 no
S2 C3 C4 S1 2.56 no
S2 C3 C4 C5 -177.24 no
N1 C3 C4 C5 2.86 no
N1 C3 C4 S1 -177.34 no
S1 C4 C5 S3 177.53 no
C3 C4 C5 C8 175.10 no
S1 C4 C5 C8 -4.68 no
C3 C4 C5 S3 -2.68 no
