#------------------------------------------------------------------------------
#$Date: 2023-12-05 10:34:00 +0200 (Tue, 05 Dec 2023) $
#$Revision: 288031 $
#$URL: file:///home/coder/svn-repositories/cod/cif/2/10/77/2107755.cif $
#------------------------------------------------------------------------------
#
# This file is available in the Crystallography Open Database (COD),
# http://www.crystallography.net/. The original data for this entry
# were provided by IUCr Journals, http://journals.iucr.org/.
#
# The file may be used within the scientific community so long as
# proper attribution is given to the journal article from which the
# data were obtained.
#
data_2107755
loop_
_publ_author_name
'Reilly, Anthony M.'
'Cooper, Richard I.'
'Adjiman, Claire S.'
'Bhattacharya, Saswata'
'Boese, A. Daniel'
'Brandenburg, Jan Gerit'
'Bygrave, Peter J.'
'Bylsma, Rita'
'Campbell, Josh E.'
'Car, Roberto'
'Case, David H.'
'Chadha, Renu'
'Cole, Jason C.'
'Cosburn, Katherine'
'Cuppen, Herma M.'
'Curtis, Farren'
'Day, Graeme M.'
'DiStasio Jr, Robert A.'
'Dzyabchenko, Alexander'
'van Eijck, Bouke P.'
'Elking, Dennis M.'
'van den Ende, Joost A.'
'Facelli, Julio C.'
'Ferraro, Marta B.'
'Fusti-Molnar, Laszlo'
'Gatsiou, Christina-Anna'
'Gee, Thomas S.'
'de Gelder, Ren\'e'
'Ghiringhelli, Luca M.'
'Goto, Hitoshi'
'Grimme, Stefan'
'Guo, Rui'
'Hofmann, Detlef W. M.'
'Hoja, Johannes'
'Hylton, Rebecca K.'
'Iuzzolino, Luca'
'Jankiewicz, Wojciech'
'de Jong, Dani\"el T.'
'Kendrick, John'
'de Klerk, Niek J. J.'
'Ko, Hsin-Yu'
'Kuleshova, Liudmila N.'
'Li, Xiayue'
'Lohani, Sanjaya'
'Leusen, Frank J. J.'
'Lund, Albert M.'
'Lv, Jian'
'Ma, Yanming'
'Marom, Noa'
'Masunov, Art\"em E.'
'McCabe, Patrick'
'McMahon, David P.'
'Meekes, Hugo'
'Metz, Michael P.'
'Misquitta, Alston J.'
'Mohamed, Sharmarke'
'Monserrat, Bartomeu'
'Needs, Richard J.'
'Neumann, Marcus A.'
'Nyman, Jonas'
'Obata, Shigeaki'
'Oberhofer, Harald'
'Oganov, Artem R.'
'Orendt, Anita M.'
'Pagola, Gabriel I.'
'Pantelides, Constantinos C.'
'Pickard, Chris J.'
'Podeszwa, Rafal'
'Price, Louise S.'
'Price, Sarah L.'
'Pulido, Angeles'
'Read, Murray G.'
'Reuter, Karsten'
'Schneider, Elia'
'Schober, Christoph'
'Shields, Gregory P.'
'Singh, Pawanpreet'
'Sugden, Isaac J.'
'Szalewicz, Krzysztof'
'Taylor, Christopher R.'
'Tkatchenko, Alexandre'
'Tuckerman, Mark E.'
'Vacarro, Francesca'
'Vasileiadis, Manolis'
'Vazquez-Mayagoitia, Alvaro'
'Vogt, Leslie'
'Wang, Yanchao'
'Watson, Rona E.'
'de Wijs, Gilles A.'
'Yang, Jack'
'Zhu, Qiang'
'Groom, Colin R.'
_publ_section_title
;
 Report on the sixth blind test of organic crystal structure prediction
 methods
;
_journal_issue                   4
_journal_name_full               'Acta Crystallographica Section B'
_journal_page_first              439
_journal_page_last               459
_journal_paper_doi               10.1107/S2052520616007447
_journal_volume                  72
_journal_year                    2016
_chemical_compound_source        'see text'
_chemical_formula_moiety         'C8 N4 S3'
_chemical_formula_sum            'C8 N4 S3'
_chemical_formula_weight         248.33
_space_group_IT_number           14
_symmetry_cell_setting           monoclinic
_symmetry_Int_Tables_number      14
_symmetry_space_group_name_Hall  '-P 2ybc'
_symmetry_space_group_name_H-M   'P 1 21/c 1'
_atom_sites_solution_hydrogens   ' .'
_atom_sites_solution_primary     ' ?'
_atom_sites_solution_secondary   ' ?'
_cell_angle_alpha                90
_cell_angle_beta                 98.7550
_cell_angle_gamma                90
_cell_formula_units_Z            4
_cell_length_a                   10.22420
_cell_length_b                   7.50360
_cell_length_c                   14.29580
_cell_volume                     1083.971
_computing_publication_material  'PLATON (Spek, 2003)'
_diffrn_radiation_probe          x-ray
_diffrn_radiation_type           MoK\a
_diffrn_radiation_wavelength     0.71073
_diffrn_reflns_reduction_process
;
;
_exptl_absorpt_coefficient_mu    0.652
_exptl_absorpt_correction_type   ' ?'
_exptl_crystal_colour            ' ?'
_exptl_crystal_density_diffrn    1.522
_exptl_crystal_density_method    'Not Measured'
_exptl_crystal_description       ' ?'
_exptl_crystal_F_000             496
_refine_ls_extinction_method     ' ?'
_refine_ls_hydrogen_treatment    ' .'
_refine_ls_number_restraints     0
_refine_ls_weighting_scheme      ?
_iucr_refine_instructions_details
;
;
_cod_data_source_file            XXII-1_Goto_Obata.cif
_cod_data_source_block           XXII_R015
_cod_original_sg_symbol_H-M      'P 21/c'
_cod_struct_determination_method theoretical
_cod_database_code               2107755
loop_
_symmetry_equiv_pos_site_id
_symmetry_equiv_pos_as_xyz
1 x,y,z
2 -x,1/2+y,1/2-z
3 -x,-y,-z
4 x,1/2-y,1/2+z
loop_
_atom_site_label
_atom_site_type_symbol
_atom_site_thermal_displace_type
_atom_site_fract_x
_atom_site_fract_y
_atom_site_fract_z
_atom_site_occupancy
_atom_site_U_iso_or_equiv
S1 S Uiso 0.18405 0.84703 0.22433 1.000 0.0500
S2 S Uiso 0.26673 0.78983 0.00586 1.000 0.0500
S3 S Uiso -0.13228 0.73384 0.00509 1.000 0.0500
N1 N Uiso 0.00881 0.73672 -0.03889 1.000 0.0500
N2 N Uiso 0.49823 0.63456 0.34223 1.000 0.0500
N3 N Uiso 0.59273 0.58943 0.09805 1.000 0.0500
N4 N Uiso -0.20453 0.86242 0.24974 1.000 0.0500
C1 C Uiso 0.33041 0.74845 0.19936 1.000 0.0500
C2 C Uiso 0.36323 0.72681 0.11192 1.000 0.0500
C3 C Uiso 0.10615 0.76922 0.03192 1.000 0.0500
C4 C Uiso 0.07072 0.79678 0.12312 1.000 0.0500
C5 C Uiso -0.06501 0.78873 0.11822 1.000 0.0500
C6 C Uiso 0.42157 0.68938 0.28039 1.000 0.0500
C7 C Uiso 0.48944 0.65116 0.10199 1.000 0.0500
C8 C Uiso -0.14198 0.82474 0.19119 1.000 0.0500
loop_
_atom_type_symbol
_atom_type_description
_atom_type_scat_dispersion_real
_atom_type_scat_dispersion_imag
_atom_type_scat_source
C C 0.0033 0.0016 ' International Tables Vol C Tables 4.2.6.8 and 6.1.1.4'
N N 0.0061 0.0033 ' International Tables Vol C Tables 4.2.6.8 and 6.1.1.4'
S S 0.1246 0.1234 ' International Tables Vol C Tables 4.2.6.8 and 6.1.1.4'
loop_
_geom_angle_atom_site_label_1
_geom_angle_atom_site_label_2
_geom_angle_atom_site_label_3
_geom_angle
_geom_angle_publ_flag
C1 S1 C4 102.63 yes
C2 S2 C3 102.51 yes
N1 S3 C5 96.18 yes
S3 N1 C3 107.88 yes
S1 C1 C2 125.32 yes
S1 C1 C6 115.68 yes
C2 C1 C6 118.99 no
S2 C2 C1 125.73 yes
S2 C2 C7 114.78 yes
C1 C2 C7 119.46 no
S2 C3 N1 118.25 yes
S2 C3 C4 124.25 yes
N1 C3 C4 117.36 yes
S1 C4 C3 124.09 yes
S1 C4 C5 125.80 yes
C3 C4 C5 110.00 no
S3 C5 C4 108.38 yes
S3 C5 C8 123.44 yes
C4 C5 C8 128.14 no
N2 C6 C1 175.90 yes
N3 C7 C2 177.14 yes
N4 C8 C5 176.85 yes
loop_
_geom_bond_atom_site_label_1
_geom_bond_atom_site_label_2
_geom_bond_distance
_geom_bond_publ_flag
S1 C1 1.7540 yes
S1 C4 1.7515 yes
S2 C2 1.7437 yes
S2 C3 1.7448 yes
S3 N1 1.6591 yes
S3 C5 1.7087 yes
N1 C3 1.3297 yes
N2 C6 1.1637 yes
N3 C7 1.1624 yes
N4 C8 1.1630 yes
C1 C2 1.3525 no
C1 C6 1.4416 no
C2 C7 1.4364 no
C3 C4 1.4204 no
C4 C5 1.3801 no
C5 C8 1.4249 no
loop_
_geom_torsion_atom_site_label_1
_geom_torsion_atom_site_label_2
_geom_torsion_atom_site_label_3
_geom_torsion_atom_site_label_4
_geom_torsion
_geom_torsion_publ_flag
C1 S1 C4 C5 156.48 no
C4 S1 C1 C2 29.97 no
C4 S1 C1 C6 -150.89 no
C1 S1 C4 C3 -27.70 no
C3 S2 C2 C1 -29.90 no
C3 S2 C2 C7 152.19 no
C2 S2 C3 N1 -153.35 no
C2 S2 C3 C4 31.11 no
C5 S3 N1 C3 3.25 no
N1 S3 C5 C8 173.66 no
N1 S3 C5 C4 -4.32 no
S3 N1 C3 C4 -1.37 no
S3 N1 C3 S2 -177.23 no
C6 C1 C2 C7 -2.02 no
S1 C1 C2 C7 177.10 no
C6 C1 C2 S2 -179.85 no
S1 C1 C2 S2 -0.73 no
S2 C3 C4 S1 -2.65 no
S2 C3 C4 C5 173.74 no
N1 C3 C4 C5 -1.84 no
N1 C3 C4 S1 -178.23 no
S1 C4 C5 S3 -179.67 no
C3 C4 C5 C8 -173.84 no
S1 C4 C5 C8 2.47 no
C3 C4 C5 S3 4.02 no
