#------------------------------------------------------------------------------
#$Date: 2023-12-05 10:34:00 +0200 (Tue, 05 Dec 2023) $
#$Revision: 288031 $
#$URL: file:///home/coder/svn-repositories/cod/cif/2/10/77/2107789.cif $
#------------------------------------------------------------------------------
#
# This file is available in the Crystallography Open Database (COD),
# http://www.crystallography.net/. The original data for this entry
# were provided by IUCr Journals, http://journals.iucr.org/.
#
# The file may be used within the scientific community so long as
# proper attribution is given to the journal article from which the
# data were obtained.
#
data_2107789
loop_
_publ_author_name
'Reilly, Anthony M.'
'Cooper, Richard I.'
'Adjiman, Claire S.'
'Bhattacharya, Saswata'
'Boese, A. Daniel'
'Brandenburg, Jan Gerit'
'Bygrave, Peter J.'
'Bylsma, Rita'
'Campbell, Josh E.'
'Car, Roberto'
'Case, David H.'
'Chadha, Renu'
'Cole, Jason C.'
'Cosburn, Katherine'
'Cuppen, Herma M.'
'Curtis, Farren'
'Day, Graeme M.'
'DiStasio Jr, Robert A.'
'Dzyabchenko, Alexander'
'van Eijck, Bouke P.'
'Elking, Dennis M.'
'van den Ende, Joost A.'
'Facelli, Julio C.'
'Ferraro, Marta B.'
'Fusti-Molnar, Laszlo'
'Gatsiou, Christina-Anna'
'Gee, Thomas S.'
'de Gelder, Ren\'e'
'Ghiringhelli, Luca M.'
'Goto, Hitoshi'
'Grimme, Stefan'
'Guo, Rui'
'Hofmann, Detlef W. M.'
'Hoja, Johannes'
'Hylton, Rebecca K.'
'Iuzzolino, Luca'
'Jankiewicz, Wojciech'
'de Jong, Dani\"el T.'
'Kendrick, John'
'de Klerk, Niek J. J.'
'Ko, Hsin-Yu'
'Kuleshova, Liudmila N.'
'Li, Xiayue'
'Lohani, Sanjaya'
'Leusen, Frank J. J.'
'Lund, Albert M.'
'Lv, Jian'
'Ma, Yanming'
'Marom, Noa'
'Masunov, Art\"em E.'
'McCabe, Patrick'
'McMahon, David P.'
'Meekes, Hugo'
'Metz, Michael P.'
'Misquitta, Alston J.'
'Mohamed, Sharmarke'
'Monserrat, Bartomeu'
'Needs, Richard J.'
'Neumann, Marcus A.'
'Nyman, Jonas'
'Obata, Shigeaki'
'Oberhofer, Harald'
'Oganov, Artem R.'
'Orendt, Anita M.'
'Pagola, Gabriel I.'
'Pantelides, Constantinos C.'
'Pickard, Chris J.'
'Podeszwa, Rafal'
'Price, Louise S.'
'Price, Sarah L.'
'Pulido, Angeles'
'Read, Murray G.'
'Reuter, Karsten'
'Schneider, Elia'
'Schober, Christoph'
'Shields, Gregory P.'
'Singh, Pawanpreet'
'Sugden, Isaac J.'
'Szalewicz, Krzysztof'
'Taylor, Christopher R.'
'Tkatchenko, Alexandre'
'Tuckerman, Mark E.'
'Vacarro, Francesca'
'Vasileiadis, Manolis'
'Vazquez-Mayagoitia, Alvaro'
'Vogt, Leslie'
'Wang, Yanchao'
'Watson, Rona E.'
'de Wijs, Gilles A.'
'Yang, Jack'
'Zhu, Qiang'
'Groom, Colin R.'
_publ_section_title
;
 Report on the sixth blind test of organic crystal structure prediction
 methods
;
_journal_issue                   4
_journal_name_full               'Acta Crystallographica Section B'
_journal_page_first              439
_journal_page_last               459
_journal_paper_doi               10.1107/S2052520616007447
_journal_volume                  72
_journal_year                    2016
_chemical_compound_source        'see text'
_chemical_formula_moiety         'C8 N4 S3'
_chemical_formula_sum            'C8 N4 S3'
_chemical_formula_weight         248.33
_space_group_IT_number           14
_symmetry_cell_setting           monoclinic
_symmetry_Int_Tables_number      14
_symmetry_space_group_name_Hall  '-P 2ybc'
_symmetry_space_group_name_H-M   'P 1 21/c 1'
_atom_sites_solution_hydrogens   ' .'
_atom_sites_solution_primary     ' ?'
_atom_sites_solution_secondary   ' ?'
_cell_angle_alpha                90
_cell_angle_beta                 98.8990
_cell_angle_gamma                90
_cell_formula_units_Z            4
_cell_length_a                   10.90560
_cell_length_b                   7.19590
_cell_length_c                   13.97480
_cell_volume                     1083.480
_computing_publication_material  'PLATON (Spek, 2003)'
_diffrn_radiation_probe          x-ray
_diffrn_radiation_type           MoK\a
_diffrn_radiation_wavelength     0.71073
_diffrn_reflns_reduction_process
;
;
_exptl_absorpt_coefficient_mu    0.652
_exptl_absorpt_correction_type   ' ?'
_exptl_crystal_colour            ' ?'
_exptl_crystal_density_diffrn    1.522
_exptl_crystal_density_method    'Not Measured'
_exptl_crystal_description       ' ?'
_exptl_crystal_F_000             496
_refine_ls_extinction_method     ' ?'
_refine_ls_hydrogen_treatment    ' .'
_refine_ls_number_restraints     0
_refine_ls_weighting_scheme      ?
_iucr_refine_instructions_details
;
;
_cod_data_source_file            XXII-1_Goto_Obata.cif
_cod_data_source_block           XXII_R049
_cod_original_sg_symbol_H-M      'P 21/c'
_cod_struct_determination_method theoretical
_cod_database_code               2107789
loop_
_symmetry_equiv_pos_site_id
_symmetry_equiv_pos_as_xyz
1 x,y,z
2 -x,1/2+y,1/2-z
3 -x,-y,-z
4 x,1/2-y,1/2+z
loop_
_atom_site_label
_atom_site_type_symbol
_atom_site_thermal_displace_type
_atom_site_fract_x
_atom_site_fract_y
_atom_site_fract_z
_atom_site_occupancy
_atom_site_U_iso_or_equiv
S1 S Uiso 0.29683 0.93677 0.34534 1.000 0.0500
S2 S Uiso 0.19331 0.48745 0.33304 1.000 0.0500
S3 S Uiso 0.57266 0.52021 0.38126 1.000 0.0500
N1 N Uiso 0.43404 0.42053 0.36316 1.000 0.0500
N2 N Uiso 0.00094 1.12471 0.39745 1.000 0.0500
N3 N Uiso -0.11236 0.61071 0.39514 1.000 0.0500
N4 N Uiso 0.66432 1.03004 0.40272 1.000 0.0500
C1 C Uiso 0.15337 0.85879 0.36990 1.000 0.0500
C2 C Uiso 0.11310 0.68100 0.36638 1.000 0.0500
C3 C Uiso 0.34861 0.55427 0.35414 1.000 0.0500
C4 C Uiso 0.39192 0.74042 0.36048 1.000 0.0500
C5 C Uiso 0.52012 0.74344 0.37749 1.000 0.0500
C6 C Uiso 0.07059 1.00582 0.38863 1.000 0.0500
C7 C Uiso -0.01057 0.64083 0.38458 1.000 0.0500
C8 C Uiso 0.60029 0.90041 0.39051 1.000 0.0500
loop_
_atom_type_symbol
_atom_type_description
_atom_type_scat_dispersion_real
_atom_type_scat_dispersion_imag
_atom_type_scat_source
C C 0.0033 0.0016 ' International Tables Vol C Tables 4.2.6.8 and 6.1.1.4'
N N 0.0061 0.0033 ' International Tables Vol C Tables 4.2.6.8 and 6.1.1.4'
S S 0.1246 0.1234 ' International Tables Vol C Tables 4.2.6.8 and 6.1.1.4'
loop_
_geom_angle_atom_site_label_1
_geom_angle_atom_site_label_2
_geom_angle_atom_site_label_3
_geom_angle
_geom_angle_publ_flag
C1 S1 C4 104.46 yes
C2 S2 C3 104.41 yes
N1 S3 C5 96.25 yes
S3 N1 C3 108.06 yes
S1 C1 C2 126.40 yes
S1 C1 C6 113.92 yes
C2 C1 C6 119.52 no
S2 C2 C1 126.27 yes
S2 C2 C7 114.12 yes
C1 C2 C7 119.45 no
S2 C3 N1 117.67 yes
S2 C3 C4 125.24 yes
N1 C3 C4 117.07 yes
S1 C4 C3 124.81 yes
S1 C4 C5 125.05 yes
C3 C4 C5 110.11 no
S3 C5 C4 108.49 yes
S3 C5 C8 123.20 yes
C4 C5 C8 128.31 no
N2 C6 C1 175.63 yes
N3 C7 C2 177.01 yes
N4 C8 C5 178.48 yes
loop_
_geom_bond_atom_site_label_1
_geom_bond_atom_site_label_2
_geom_bond_distance
_geom_bond_publ_flag
S1 C1 1.7454 yes
S1 C4 1.7460 yes
S2 C2 1.7459 yes
S2 C3 1.7413 yes
S3 N1 1.6570 yes
S3 C5 1.7035 yes
N1 C3 1.3318 yes
N2 C6 1.1632 yes
N3 C7 1.1626 yes
N4 C8 1.1619 yes
C1 C2 1.3511 no
C1 C6 1.4408 no
C2 C7 1.4399 no
C3 C4 1.4186 no
C4 C5 1.3816 no
C5 C8 1.4227 no
loop_
_geom_torsion_atom_site_label_1
_geom_torsion_atom_site_label_2
_geom_torsion_atom_site_label_3
_geom_torsion_atom_site_label_4
_geom_torsion
_geom_torsion_publ_flag
C1 S1 C4 C5 -159.36 no
C4 S1 C1 C2 -21.25 no
C4 S1 C1 C6 163.35 no
C1 S1 C4 C3 22.66 no
C3 S2 C2 C1 23.31 no
C3 S2 C2 C7 -161.21 no
C2 S2 C3 N1 160.32 no
C2 S2 C3 C4 -21.13 no
C5 S3 N1 C3 0.11 no
N1 S3 C5 C8 179.07 no
N1 S3 C5 C4 -0.81 no
S3 N1 C3 C4 0.64 no
S3 N1 C3 S2 179.32 no
C6 C1 C2 C7 -2.04 no
S1 C1 C2 C7 -177.21 no
C6 C1 C2 S2 173.21 no
S1 C1 C2 S2 -1.96 no
S2 C3 C4 S1 -1.60 no
S2 C3 C4 C5 -179.84 no
N1 C3 C4 C5 -1.27 no
N1 C3 C4 S1 176.97 no
S1 C4 C5 S3 -177.00 no
C3 C4 C5 C8 -178.65 no
S1 C4 C5 C8 3.12 no
C3 C4 C5 S3 1.23 no
