#------------------------------------------------------------------------------
#$Date: 2023-12-05 10:34:00 +0200 (Tue, 05 Dec 2023) $
#$Revision: 288031 $
#$URL: file:///home/coder/svn-repositories/cod/cif/2/10/78/2107813.cif $
#------------------------------------------------------------------------------
#
# This file is available in the Crystallography Open Database (COD),
# http://www.crystallography.net/. The original data for this entry
# were provided by IUCr Journals, http://journals.iucr.org/.
#
# The file may be used within the scientific community so long as
# proper attribution is given to the journal article from which the
# data were obtained.
#
data_2107813
loop_
_publ_author_name
'Reilly, Anthony M.'
'Cooper, Richard I.'
'Adjiman, Claire S.'
'Bhattacharya, Saswata'
'Boese, A. Daniel'
'Brandenburg, Jan Gerit'
'Bygrave, Peter J.'
'Bylsma, Rita'
'Campbell, Josh E.'
'Car, Roberto'
'Case, David H.'
'Chadha, Renu'
'Cole, Jason C.'
'Cosburn, Katherine'
'Cuppen, Herma M.'
'Curtis, Farren'
'Day, Graeme M.'
'DiStasio Jr, Robert A.'
'Dzyabchenko, Alexander'
'van Eijck, Bouke P.'
'Elking, Dennis M.'
'van den Ende, Joost A.'
'Facelli, Julio C.'
'Ferraro, Marta B.'
'Fusti-Molnar, Laszlo'
'Gatsiou, Christina-Anna'
'Gee, Thomas S.'
'de Gelder, Ren\'e'
'Ghiringhelli, Luca M.'
'Goto, Hitoshi'
'Grimme, Stefan'
'Guo, Rui'
'Hofmann, Detlef W. M.'
'Hoja, Johannes'
'Hylton, Rebecca K.'
'Iuzzolino, Luca'
'Jankiewicz, Wojciech'
'de Jong, Dani\"el T.'
'Kendrick, John'
'de Klerk, Niek J. J.'
'Ko, Hsin-Yu'
'Kuleshova, Liudmila N.'
'Li, Xiayue'
'Lohani, Sanjaya'
'Leusen, Frank J. J.'
'Lund, Albert M.'
'Lv, Jian'
'Ma, Yanming'
'Marom, Noa'
'Masunov, Art\"em E.'
'McCabe, Patrick'
'McMahon, David P.'
'Meekes, Hugo'
'Metz, Michael P.'
'Misquitta, Alston J.'
'Mohamed, Sharmarke'
'Monserrat, Bartomeu'
'Needs, Richard J.'
'Neumann, Marcus A.'
'Nyman, Jonas'
'Obata, Shigeaki'
'Oberhofer, Harald'
'Oganov, Artem R.'
'Orendt, Anita M.'
'Pagola, Gabriel I.'
'Pantelides, Constantinos C.'
'Pickard, Chris J.'
'Podeszwa, Rafal'
'Price, Louise S.'
'Price, Sarah L.'
'Pulido, Angeles'
'Read, Murray G.'
'Reuter, Karsten'
'Schneider, Elia'
'Schober, Christoph'
'Shields, Gregory P.'
'Singh, Pawanpreet'
'Sugden, Isaac J.'
'Szalewicz, Krzysztof'
'Taylor, Christopher R.'
'Tkatchenko, Alexandre'
'Tuckerman, Mark E.'
'Vacarro, Francesca'
'Vasileiadis, Manolis'
'Vazquez-Mayagoitia, Alvaro'
'Vogt, Leslie'
'Wang, Yanchao'
'Watson, Rona E.'
'de Wijs, Gilles A.'
'Yang, Jack'
'Zhu, Qiang'
'Groom, Colin R.'
_publ_section_title
;
 Report on the sixth blind test of organic crystal structure prediction
 methods
;
_journal_issue                   4
_journal_name_full               'Acta Crystallographica Section B'
_journal_page_first              439
_journal_page_last               459
_journal_paper_doi               10.1107/S2052520616007447
_journal_volume                  72
_journal_year                    2016
_chemical_compound_source        'see text'
_chemical_formula_moiety         'C8 N4 S3'
_chemical_formula_sum            'C8 N4 S3'
_chemical_formula_weight         248.33
_space_group_IT_number           14
_symmetry_cell_setting           monoclinic
_symmetry_Int_Tables_number      14
_symmetry_space_group_name_Hall  '-P 2ybc'
_symmetry_space_group_name_H-M   'P 1 21/c 1'
_atom_sites_solution_hydrogens   ' .'
_atom_sites_solution_primary     ' ?'
_atom_sites_solution_secondary   ' ?'
_cell_angle_alpha                90
_cell_angle_beta                 96.9800
_cell_angle_gamma                90
_cell_formula_units_Z            4
_cell_length_a                   10.90760
_cell_length_b                   7.00110
_cell_length_c                   14.72370
_cell_volume                     1116.045
_computing_publication_material  'PLATON (Spek, 2003)'
_diffrn_radiation_probe          x-ray
_diffrn_radiation_type           MoK\a
_diffrn_radiation_wavelength     0.71073
_diffrn_reflns_reduction_process
;
;
_exptl_absorpt_coefficient_mu    0.633
_exptl_absorpt_correction_type   ' ?'
_exptl_crystal_colour            ' ?'
_exptl_crystal_density_diffrn    1.478
_exptl_crystal_density_method    'Not Measured'
_exptl_crystal_description       ' ?'
_exptl_crystal_F_000             496
_refine_ls_extinction_method     ' ?'
_refine_ls_hydrogen_treatment    ' .'
_refine_ls_number_restraints     0
_refine_ls_weighting_scheme      ?
_iucr_refine_instructions_details
;
;
_cod_data_source_file            XXII-1_Goto_Obata.cif
_cod_data_source_block           XXII_R073
_cod_original_sg_symbol_H-M      'P 21/c'
_cod_struct_determination_method theoretical
_cod_database_code               2107813
loop_
_symmetry_equiv_pos_site_id
_symmetry_equiv_pos_as_xyz
1 x,y,z
2 -x,1/2+y,1/2-z
3 -x,-y,-z
4 x,1/2-y,1/2+z
loop_
_atom_site_label
_atom_site_type_symbol
_atom_site_thermal_displace_type
_atom_site_fract_x
_atom_site_fract_y
_atom_site_fract_z
_atom_site_occupancy
_atom_site_U_iso_or_equiv
S1 S Uiso 0.21400 1.14728 0.20934 1.000 0.0500
S2 S Uiso 0.25689 0.71096 0.12704 1.000 0.0500
S3 S Uiso 0.12285 0.68871 0.37607 1.000 0.0500
N1 N Uiso 0.16715 0.60461 0.27988 1.000 0.0500
N2 N Uiso 0.51334 1.33946 0.16131 1.000 0.0500
N3 N Uiso 0.57141 0.82177 0.06667 1.000 0.0500
N4 N Uiso 0.08872 1.19585 0.46008 1.000 0.0500
C1 C Uiso 0.34506 1.07658 0.15993 1.000 0.0500
C2 C Uiso 0.36333 0.89910 0.12775 1.000 0.0500
C3 C Uiso 0.19804 0.75239 0.23090 1.000 0.0500
C4 C Uiso 0.18143 0.93778 0.26679 1.000 0.0500
C5 C Uiso 0.13784 0.92522 0.35063 1.000 0.0500
C6 C Uiso 0.43758 1.22193 0.15821 1.000 0.0500
C7 C Uiso 0.47717 0.85308 0.09300 1.000 0.0500
C8 C Uiso 0.11082 1.07579 0.41004 1.000 0.0500
loop_
_atom_type_symbol
_atom_type_description
_atom_type_scat_dispersion_real
_atom_type_scat_dispersion_imag
_atom_type_scat_source
C C 0.0033 0.0016 ' International Tables Vol C Tables 4.2.6.8 and 6.1.1.4'
N N 0.0061 0.0033 ' International Tables Vol C Tables 4.2.6.8 and 6.1.1.4'
S S 0.1246 0.1234 ' International Tables Vol C Tables 4.2.6.8 and 6.1.1.4'
loop_
_geom_angle_atom_site_label_1
_geom_angle_atom_site_label_2
_geom_angle_atom_site_label_3
_geom_angle
_geom_angle_publ_flag
C1 S1 C4 100.81 yes
C2 S2 C3 100.53 yes
N1 S3 C5 96.38 yes
S3 N1 C3 107.85 yes
S1 C1 C2 124.54 yes
S1 C1 C6 114.70 yes
C2 C1 C6 120.73 no
S2 C2 C1 124.46 yes
S2 C2 C7 115.44 yes
C1 C2 C7 120.09 no
S2 C3 N1 119.26 yes
S2 C3 C4 123.52 yes
N1 C3 C4 117.22 yes
S1 C4 C3 122.88 yes
S1 C4 C5 126.75 yes
C3 C4 C5 110.37 no
S3 C5 C4 108.09 yes
S3 C5 C8 123.38 yes
C4 C5 C8 128.52 no
N2 C6 C1 176.76 yes
N3 C7 C2 177.39 yes
N4 C8 C5 178.51 yes
loop_
_geom_bond_atom_site_label_1
_geom_bond_atom_site_label_2
_geom_bond_distance
_geom_bond_publ_flag
S1 C1 1.7523 yes
S1 C4 1.7510 yes
S2 C2 1.7550 yes
S2 C3 1.7531 yes
S3 N1 1.6590 yes
S3 C5 1.7099 yes
N1 C3 1.3278 yes
N2 C6 1.1631 yes
N3 C7 1.1627 yes
N4 C8 1.1622 yes
C1 C2 1.3532 no
C1 C6 1.4356 no
C2 C7 1.4359 no
C3 C4 1.4213 no
C4 C5 1.3785 no
C5 C8 1.4234 no
loop_
_geom_torsion_atom_site_label_1
_geom_torsion_atom_site_label_2
_geom_torsion_atom_site_label_3
_geom_torsion_atom_site_label_4
_geom_torsion
_geom_torsion_publ_flag
C1 S1 C4 C5 143.06 no
C4 S1 C1 C2 35.43 no
C4 S1 C1 C6 -142.53 no
C1 S1 C4 C3 -36.70 no
C3 S2 C2 C1 -37.18 no
C3 S2 C2 C7 141.38 no
C2 S2 C3 N1 -145.12 no
C2 S2 C3 C4 34.64 no
C5 S3 N1 C3 2.65 no
N1 S3 C5 C8 179.57 no
N1 S3 C5 C4 -1.68 no
S3 N1 C3 C4 -3.02 no
S3 N1 C3 S2 176.76 no
C6 C1 C2 C7 1.23 no
S1 C1 C2 C7 -176.61 no
C6 C1 C2 S2 179.73 no
S1 C1 C2 S2 1.88 no
S2 C3 C4 S1 1.88 no
S2 C3 C4 C5 -177.92 no
N1 C3 C4 C5 1.85 no
N1 C3 C4 S1 -178.36 no
S1 C4 C5 S3 -179.53 no
C3 C4 C5 C8 178.92 no
S1 C4 C5 C8 -0.86 no
C3 C4 C5 S3 0.25 no
