#------------------------------------------------------------------------------
#$Date: 2023-12-05 10:34:00 +0200 (Tue, 05 Dec 2023) $
#$Revision: 288031 $
#$URL: file:///home/coder/svn-repositories/cod/cif/2/10/78/2107801.cif $
#------------------------------------------------------------------------------
#
# This file is available in the Crystallography Open Database (COD),
# http://www.crystallography.net/. The original data for this entry
# were provided by IUCr Journals, http://journals.iucr.org/.
#
# The file may be used within the scientific community so long as
# proper attribution is given to the journal article from which the
# data were obtained.
#
data_2107801
loop_
_publ_author_name
'Reilly, Anthony M.'
'Cooper, Richard I.'
'Adjiman, Claire S.'
'Bhattacharya, Saswata'
'Boese, A. Daniel'
'Brandenburg, Jan Gerit'
'Bygrave, Peter J.'
'Bylsma, Rita'
'Campbell, Josh E.'
'Car, Roberto'
'Case, David H.'
'Chadha, Renu'
'Cole, Jason C.'
'Cosburn, Katherine'
'Cuppen, Herma M.'
'Curtis, Farren'
'Day, Graeme M.'
'DiStasio Jr, Robert A.'
'Dzyabchenko, Alexander'
'van Eijck, Bouke P.'
'Elking, Dennis M.'
'van den Ende, Joost A.'
'Facelli, Julio C.'
'Ferraro, Marta B.'
'Fusti-Molnar, Laszlo'
'Gatsiou, Christina-Anna'
'Gee, Thomas S.'
'de Gelder, Ren\'e'
'Ghiringhelli, Luca M.'
'Goto, Hitoshi'
'Grimme, Stefan'
'Guo, Rui'
'Hofmann, Detlef W. M.'
'Hoja, Johannes'
'Hylton, Rebecca K.'
'Iuzzolino, Luca'
'Jankiewicz, Wojciech'
'de Jong, Dani\"el T.'
'Kendrick, John'
'de Klerk, Niek J. J.'
'Ko, Hsin-Yu'
'Kuleshova, Liudmila N.'
'Li, Xiayue'
'Lohani, Sanjaya'
'Leusen, Frank J. J.'
'Lund, Albert M.'
'Lv, Jian'
'Ma, Yanming'
'Marom, Noa'
'Masunov, Art\"em E.'
'McCabe, Patrick'
'McMahon, David P.'
'Meekes, Hugo'
'Metz, Michael P.'
'Misquitta, Alston J.'
'Mohamed, Sharmarke'
'Monserrat, Bartomeu'
'Needs, Richard J.'
'Neumann, Marcus A.'
'Nyman, Jonas'
'Obata, Shigeaki'
'Oberhofer, Harald'
'Oganov, Artem R.'
'Orendt, Anita M.'
'Pagola, Gabriel I.'
'Pantelides, Constantinos C.'
'Pickard, Chris J.'
'Podeszwa, Rafal'
'Price, Louise S.'
'Price, Sarah L.'
'Pulido, Angeles'
'Read, Murray G.'
'Reuter, Karsten'
'Schneider, Elia'
'Schober, Christoph'
'Shields, Gregory P.'
'Singh, Pawanpreet'
'Sugden, Isaac J.'
'Szalewicz, Krzysztof'
'Taylor, Christopher R.'
'Tkatchenko, Alexandre'
'Tuckerman, Mark E.'
'Vacarro, Francesca'
'Vasileiadis, Manolis'
'Vazquez-Mayagoitia, Alvaro'
'Vogt, Leslie'
'Wang, Yanchao'
'Watson, Rona E.'
'de Wijs, Gilles A.'
'Yang, Jack'
'Zhu, Qiang'
'Groom, Colin R.'
_publ_section_title
;
 Report on the sixth blind test of organic crystal structure prediction
 methods
;
_journal_issue                   4
_journal_name_full               'Acta Crystallographica Section B'
_journal_page_first              439
_journal_page_last               459
_journal_paper_doi               10.1107/S2052520616007447
_journal_volume                  72
_journal_year                    2016
_chemical_compound_source        'see text'
_chemical_formula_moiety         'C8 N4 S3'
_chemical_formula_sum            'C8 N4 S3'
_chemical_formula_weight         248.33
_space_group_IT_number           7
_symmetry_cell_setting           monoclinic
_symmetry_Int_Tables_number      7
_symmetry_space_group_name_Hall  'P -2yc'
_symmetry_space_group_name_H-M   'P 1 c 1'
_atom_sites_solution_hydrogens   ' .'
_atom_sites_solution_primary     ' ?'
_atom_sites_solution_secondary   ' ?'
_cell_angle_alpha                90
_cell_angle_beta                 114.8760
_cell_angle_gamma                90
_cell_formula_units_Z            2
_cell_length_a                   8.35570
_cell_length_b                   6.51280
_cell_length_c                   11.21030
_cell_volume                     553.453
_computing_publication_material  'PLATON (Spek, 2003)'
_diffrn_radiation_probe          x-ray
_diffrn_radiation_type           MoK\a
_diffrn_radiation_wavelength     0.71073
_diffrn_reflns_reduction_process
;
;
_exptl_absorpt_coefficient_mu    0.638
_exptl_absorpt_correction_type   ' ?'
_exptl_crystal_colour            ' ?'
_exptl_crystal_density_diffrn    1.490
_exptl_crystal_density_method    'Not Measured'
_exptl_crystal_description       ' ?'
_exptl_crystal_F_000             248
_refine_ls_abs_structure_details 'Flack (1983)'
_refine_ls_extinction_method     ' ?'
_refine_ls_hydrogen_treatment    ' .'
_refine_ls_number_restraints     0
_refine_ls_weighting_scheme      ?
_iucr_refine_instructions_details
;
;
_cod_data_source_file            XXII-1_Goto_Obata.cif
_cod_data_source_block           XXII_R061
_cod_original_sg_symbol_H-M      'P c'
_cod_struct_determination_method theoretical
_cod_database_code               2107801
loop_
_symmetry_equiv_pos_site_id
_symmetry_equiv_pos_as_xyz
1 x,y,z
2 x,-y,1/2+z
loop_
_atom_site_label
_atom_site_type_symbol
_atom_site_thermal_displace_type
_atom_site_fract_x
_atom_site_fract_y
_atom_site_fract_z
_atom_site_occupancy
_atom_site_U_iso_or_equiv
S1 S Uiso 0.13576 0.40884 0.10104 1.000 0.0500
S2 S Uiso -0.11565 -0.03408 0.05486 1.000 0.0500
S3 S Uiso 0.29979 -0.01074 0.41643 1.000 0.0500
N1 N Uiso 0.12046 -0.10199 0.29525 1.000 0.0500
N2 N Uiso -0.15271 0.62781 -0.21474 1.000 0.0500
N3 N Uiso -0.43887 0.12361 -0.26944 1.000 0.0500
N4 N Uiso 0.55296 0.48211 0.45075 1.000 0.0500
C1 C Uiso -0.05839 0.34432 -0.03464 1.000 0.0500
C2 C Uiso -0.15526 0.17166 -0.05284 1.000 0.0500
C3 C Uiso 0.07044 0.03063 0.19542 1.000 0.0500
C4 C Uiso 0.17347 0.21118 0.21457 1.000 0.0500
C5 C Uiso 0.31040 0.21016 0.33896 1.000 0.0500
C6 C Uiso -0.11348 0.49802 -0.13645 1.000 0.0500
C7 C Uiso -0.31073 0.14563 -0.17383 1.000 0.0500
C8 C Uiso 0.44309 0.36123 0.39923 1.000 0.0500
loop_
_atom_type_symbol
_atom_type_description
_atom_type_scat_dispersion_real
_atom_type_scat_dispersion_imag
_atom_type_scat_source
C C 0.0033 0.0016 ' International Tables Vol C Tables 4.2.6.8 and 6.1.1.4'
N N 0.0061 0.0033 ' International Tables Vol C Tables 4.2.6.8 and 6.1.1.4'
S S 0.1246 0.1234 ' International Tables Vol C Tables 4.2.6.8 and 6.1.1.4'
loop_
_geom_angle_atom_site_label_1
_geom_angle_atom_site_label_2
_geom_angle_atom_site_label_3
_geom_angle
_geom_angle_publ_flag
C1 S1 C4 105.95 yes
C2 S2 C3 106.20 yes
N1 S3 C5 96.22 yes
S3 N1 C3 108.21 yes
S1 C1 C2 127.64 yes
S1 C1 C6 113.16 yes
C2 C1 C6 119.19 no
S2 C2 C1 127.57 yes
S2 C2 C7 113.32 yes
C1 C2 C7 119.10 no
S2 C3 N1 116.68 yes
S2 C3 C4 126.36 yes
N1 C3 C4 116.97 yes
S1 C4 C3 126.12 yes
S1 C4 C5 123.96 yes
C3 C4 C5 109.91 no
S3 C5 C4 108.67 yes
S3 C5 C8 122.67 yes
C4 C5 C8 128.66 no
N2 C6 C1 177.04 yes
N3 C7 C2 178.10 yes
N4 C8 C5 178.59 yes
loop_
_geom_bond_atom_site_label_1
_geom_bond_atom_site_label_2
_geom_bond_distance
_geom_bond_publ_flag
S1 C1 1.7452 yes
S1 C4 1.7432 yes
S2 C2 1.7397 yes
S2 C3 1.7369 yes
S3 N1 1.6527 yes
S3 C5 1.7020 yes
N1 C3 1.3340 yes
N2 C6 1.1620 yes
N3 C7 1.1620 yes
N4 C8 1.1619 yes
C1 C2 1.3499 no
C1 C6 1.4403 no
C2 C7 1.4400 no
C3 C4 1.4193 no
C4 C5 1.3825 no
C5 C8 1.4225 no
loop_
_geom_torsion_atom_site_label_1
_geom_torsion_atom_site_label_2
_geom_torsion_atom_site_label_3
_geom_torsion_atom_site_label_4
_geom_torsion
_geom_torsion_publ_flag
C1 S1 C4 C5 -176.37 no
C4 S1 C1 C2 -3.63 no
C4 S1 C1 C6 177.32 no
C1 S1 C4 C3 3.02 no
C3 S2 C2 C1 2.39 no
C3 S2 C2 C7 -177.85 no
C2 S2 C3 N1 176.67 no
C2 S2 C3 C4 -2.89 no
C5 S3 N1 C3 1.36 no
N1 S3 C5 C8 178.75 no
N1 S3 C5 C4 -1.37 no
S3 N1 C3 C4 -1.03 no
S3 N1 C3 S2 179.37 no
C6 C1 C2 C7 0.22 no
S1 C1 C2 C7 -178.78 no
C6 C1 C2 S2 179.96 no
S1 C1 C2 S2 0.97 no
S2 C3 C4 S1 0.12 no
S2 C3 C4 C5 179.59 no
N1 C3 C4 C5 0.04 no
N1 C3 C4 S1 -179.43 no
S1 C4 C5 S3 -179.56 no
C3 C4 C5 C8 -179.17 no
S1 C4 C5 C8 0.31 no
C3 C4 C5 S3 0.96 no
