#------------------------------------------------------------------------------
#$Date: 2023-12-05 10:34:00 +0200 (Tue, 05 Dec 2023) $
#$Revision: 288031 $
#$URL: file:///home/coder/svn-repositories/cod/cif/2/10/78/2107818.cif $
#------------------------------------------------------------------------------
#
# This file is available in the Crystallography Open Database (COD),
# http://www.crystallography.net/. The original data for this entry
# were provided by IUCr Journals, http://journals.iucr.org/.
#
# The file may be used within the scientific community so long as
# proper attribution is given to the journal article from which the
# data were obtained.
#
data_2107818
loop_
_publ_author_name
'Reilly, Anthony M.'
'Cooper, Richard I.'
'Adjiman, Claire S.'
'Bhattacharya, Saswata'
'Boese, A. Daniel'
'Brandenburg, Jan Gerit'
'Bygrave, Peter J.'
'Bylsma, Rita'
'Campbell, Josh E.'
'Car, Roberto'
'Case, David H.'
'Chadha, Renu'
'Cole, Jason C.'
'Cosburn, Katherine'
'Cuppen, Herma M.'
'Curtis, Farren'
'Day, Graeme M.'
'DiStasio Jr, Robert A.'
'Dzyabchenko, Alexander'
'van Eijck, Bouke P.'
'Elking, Dennis M.'
'van den Ende, Joost A.'
'Facelli, Julio C.'
'Ferraro, Marta B.'
'Fusti-Molnar, Laszlo'
'Gatsiou, Christina-Anna'
'Gee, Thomas S.'
'de Gelder, Ren\'e'
'Ghiringhelli, Luca M.'
'Goto, Hitoshi'
'Grimme, Stefan'
'Guo, Rui'
'Hofmann, Detlef W. M.'
'Hoja, Johannes'
'Hylton, Rebecca K.'
'Iuzzolino, Luca'
'Jankiewicz, Wojciech'
'de Jong, Dani\"el T.'
'Kendrick, John'
'de Klerk, Niek J. J.'
'Ko, Hsin-Yu'
'Kuleshova, Liudmila N.'
'Li, Xiayue'
'Lohani, Sanjaya'
'Leusen, Frank J. J.'
'Lund, Albert M.'
'Lv, Jian'
'Ma, Yanming'
'Marom, Noa'
'Masunov, Art\"em E.'
'McCabe, Patrick'
'McMahon, David P.'
'Meekes, Hugo'
'Metz, Michael P.'
'Misquitta, Alston J.'
'Mohamed, Sharmarke'
'Monserrat, Bartomeu'
'Needs, Richard J.'
'Neumann, Marcus A.'
'Nyman, Jonas'
'Obata, Shigeaki'
'Oberhofer, Harald'
'Oganov, Artem R.'
'Orendt, Anita M.'
'Pagola, Gabriel I.'
'Pantelides, Constantinos C.'
'Pickard, Chris J.'
'Podeszwa, Rafal'
'Price, Louise S.'
'Price, Sarah L.'
'Pulido, Angeles'
'Read, Murray G.'
'Reuter, Karsten'
'Schneider, Elia'
'Schober, Christoph'
'Shields, Gregory P.'
'Singh, Pawanpreet'
'Sugden, Isaac J.'
'Szalewicz, Krzysztof'
'Taylor, Christopher R.'
'Tkatchenko, Alexandre'
'Tuckerman, Mark E.'
'Vacarro, Francesca'
'Vasileiadis, Manolis'
'Vazquez-Mayagoitia, Alvaro'
'Vogt, Leslie'
'Wang, Yanchao'
'Watson, Rona E.'
'de Wijs, Gilles A.'
'Yang, Jack'
'Zhu, Qiang'
'Groom, Colin R.'
_publ_section_title
;
 Report on the sixth blind test of organic crystal structure prediction
 methods
;
_journal_issue                   4
_journal_name_full               'Acta Crystallographica Section B'
_journal_page_first              439
_journal_page_last               459
_journal_paper_doi               10.1107/S2052520616007447
_journal_volume                  72
_journal_year                    2016
_chemical_compound_source        'see text'
_chemical_formula_moiety         'C8 N4 S3'
_chemical_formula_sum            'C8 N4 S3'
_chemical_formula_weight         248.33
_space_group_IT_number           14
_symmetry_cell_setting           monoclinic
_symmetry_Int_Tables_number      14
_symmetry_space_group_name_Hall  '-P 2ybc'
_symmetry_space_group_name_H-M   'P 1 21/c 1'
_atom_sites_solution_hydrogens   ' .'
_atom_sites_solution_primary     ' ?'
_atom_sites_solution_secondary   ' ?'
_cell_angle_alpha                90
_cell_angle_beta                 121.2380
_cell_angle_gamma                90
_cell_formula_units_Z            4
_cell_length_a                   7.27240
_cell_length_b                   18.53580
_cell_length_c                   9.67600
_cell_volume                     1115.222
_computing_publication_material  'PLATON (Spek, 2003)'
_diffrn_radiation_probe          x-ray
_diffrn_radiation_type           MoK\a
_diffrn_radiation_wavelength     0.71073
_diffrn_reflns_reduction_process
;
;
_exptl_absorpt_coefficient_mu    0.634
_exptl_absorpt_correction_type   ' ?'
_exptl_crystal_colour            ' ?'
_exptl_crystal_density_diffrn    1.479
_exptl_crystal_density_method    'Not Measured'
_exptl_crystal_description       ' ?'
_exptl_crystal_F_000             496
_refine_ls_extinction_method     ' ?'
_refine_ls_hydrogen_treatment    ' .'
_refine_ls_number_restraints     0
_refine_ls_weighting_scheme      ?
_iucr_refine_instructions_details
;
;
_cod_data_source_file            XXII-1_Goto_Obata.cif
_cod_data_source_block           XXII_R078
_cod_original_sg_symbol_H-M      'P 21/c'
_cod_struct_determination_method theoretical
_cod_database_code               2107818
loop_
_symmetry_equiv_pos_site_id
_symmetry_equiv_pos_as_xyz
1 x,y,z
2 -x,1/2+y,1/2-z
3 -x,-y,-z
4 x,1/2-y,1/2+z
loop_
_atom_site_label
_atom_site_type_symbol
_atom_site_thermal_displace_type
_atom_site_fract_x
_atom_site_fract_y
_atom_site_fract_z
_atom_site_occupancy
_atom_site_U_iso_or_equiv
S1 S Uiso 1.14420 0.09320 0.65352 1.000 0.0500
S2 S Uiso 0.63914 0.10882 0.57087 1.000 0.0500
S3 S Uiso 1.06968 0.09826 1.06024 1.000 0.0500
N1 N Uiso 0.83035 0.10161 0.89147 1.000 0.0500
N2 N Uiso 1.06470 0.22749 0.33784 1.000 0.0500
N3 N Uiso 0.48417 0.24841 0.25560 1.000 0.0500
N4 N Uiso 1.62906 0.07757 1.13931 1.000 0.0500
C1 C Uiso 0.95358 0.15378 0.51175 1.000 0.0500
C2 C Uiso 0.75052 0.16115 0.48116 1.000 0.0500
C3 C Uiso 0.86131 0.10189 0.76768 1.000 0.0500
C4 C Uiso 1.07662 0.09543 0.80332 1.000 0.0500
C5 C Uiso 1.21585 0.09132 0.96805 1.000 0.0500
C6 C Uiso 1.02114 0.19469 0.41947 1.000 0.0500
C7 C Uiso 0.60461 0.21107 0.36016 1.000 0.0500
C8 C Uiso 1.44355 0.08381 1.05713 1.000 0.0500
loop_
_atom_type_symbol
_atom_type_description
_atom_type_scat_dispersion_real
_atom_type_scat_dispersion_imag
_atom_type_scat_source
C C 0.0033 0.0016 ' International Tables Vol C Tables 4.2.6.8 and 6.1.1.4'
N N 0.0061 0.0033 ' International Tables Vol C Tables 4.2.6.8 and 6.1.1.4'
S S 0.1246 0.1234 ' International Tables Vol C Tables 4.2.6.8 and 6.1.1.4'
loop_
_geom_angle_atom_site_label_1
_geom_angle_atom_site_label_2
_geom_angle_atom_site_label_3
_geom_angle
_geom_angle_publ_flag
C1 S1 C4 100.60 yes
C2 S2 C3 100.16 yes
N1 S3 C5 96.20 yes
S3 N1 C3 107.81 yes
S1 C1 C2 124.34 yes
S1 C1 C6 115.85 yes
C2 C1 C6 119.74 no
S2 C2 C1 124.53 yes
S2 C2 C7 115.07 yes
C1 C2 C7 120.26 no
S2 C3 N1 119.27 yes
S2 C3 C4 123.29 yes
N1 C3 C4 117.44 yes
S1 C4 C3 123.08 yes
S1 C4 C5 126.97 yes
C3 C4 C5 109.95 no
S3 C5 C4 108.46 yes
S3 C5 C8 122.30 yes
C4 C5 C8 129.24 no
N2 C6 C1 176.36 yes
N3 C7 C2 176.03 yes
N4 C8 C5 175.42 yes
loop_
_geom_bond_atom_site_label_1
_geom_bond_atom_site_label_2
_geom_bond_distance
_geom_bond_publ_flag
S1 C1 1.7584 yes
S1 C4 1.7559 yes
S2 C2 1.7549 yes
S2 C3 1.7499 yes
S3 N1 1.6589 yes
S3 C5 1.7105 yes
N1 C3 1.3286 yes
N2 C6 1.1633 yes
N3 C7 1.1622 yes
N4 C8 1.1632 yes
C1 C2 1.3541 no
C1 C6 1.4383 no
C2 C7 1.4368 no
C3 C4 1.4230 no
C4 C5 1.3776 no
C5 C8 1.4227 no
loop_
_geom_torsion_atom_site_label_1
_geom_torsion_atom_site_label_2
_geom_torsion_atom_site_label_3
_geom_torsion_atom_site_label_4
_geom_torsion
_geom_torsion_publ_flag
C1 S1 C4 C5 -144.12 no
C4 S1 C1 C2 -34.84 no
C4 S1 C1 C6 148.20 no
C1 S1 C4 C3 35.98 no
C3 S2 C2 C1 38.79 no
C3 S2 C2 C7 -145.44 no
C2 S2 C3 N1 144.54 no
C2 S2 C3 C4 -36.37 no
C5 S3 N1 C3 -3.65 no
N1 S3 C5 C8 -177.77 no
N1 S3 C5 C4 3.10 no
S3 N1 C3 C4 3.38 no
S3 N1 C3 S2 -177.48 no
C6 C1 C2 C7 -1.72 no
S1 C1 C2 C7 -178.57 no
C6 C1 C2 S2 173.84 no
S1 C1 C2 S2 -3.01 no
S2 C3 C4 S1 -0.34 no
S2 C3 C4 C5 179.75 no
N1 C3 C4 C5 -1.14 no
N1 C3 C4 S1 178.77 no
S1 C4 C5 S3 178.47 no
C3 C4 C5 C8 179.33 no
S1 C4 C5 C8 -0.58 no
C3 C4 C5 S3 -1.63 no
