#------------------------------------------------------------------------------
#$Date: 2023-12-05 10:34:00 +0200 (Tue, 05 Dec 2023) $
#$Revision: 288031 $
#$URL: file:///home/coder/svn-repositories/cod/cif/2/10/78/2107833.cif $
#------------------------------------------------------------------------------
#
# This file is available in the Crystallography Open Database (COD),
# http://www.crystallography.net/. The original data for this entry
# were provided by IUCr Journals, http://journals.iucr.org/.
#
# The file may be used within the scientific community so long as
# proper attribution is given to the journal article from which the
# data were obtained.
#
data_2107833
loop_
_publ_author_name
'Reilly, Anthony M.'
'Cooper, Richard I.'
'Adjiman, Claire S.'
'Bhattacharya, Saswata'
'Boese, A. Daniel'
'Brandenburg, Jan Gerit'
'Bygrave, Peter J.'
'Bylsma, Rita'
'Campbell, Josh E.'
'Car, Roberto'
'Case, David H.'
'Chadha, Renu'
'Cole, Jason C.'
'Cosburn, Katherine'
'Cuppen, Herma M.'
'Curtis, Farren'
'Day, Graeme M.'
'DiStasio Jr, Robert A.'
'Dzyabchenko, Alexander'
'van Eijck, Bouke P.'
'Elking, Dennis M.'
'van den Ende, Joost A.'
'Facelli, Julio C.'
'Ferraro, Marta B.'
'Fusti-Molnar, Laszlo'
'Gatsiou, Christina-Anna'
'Gee, Thomas S.'
'de Gelder, Ren\'e'
'Ghiringhelli, Luca M.'
'Goto, Hitoshi'
'Grimme, Stefan'
'Guo, Rui'
'Hofmann, Detlef W. M.'
'Hoja, Johannes'
'Hylton, Rebecca K.'
'Iuzzolino, Luca'
'Jankiewicz, Wojciech'
'de Jong, Dani\"el T.'
'Kendrick, John'
'de Klerk, Niek J. J.'
'Ko, Hsin-Yu'
'Kuleshova, Liudmila N.'
'Li, Xiayue'
'Lohani, Sanjaya'
'Leusen, Frank J. J.'
'Lund, Albert M.'
'Lv, Jian'
'Ma, Yanming'
'Marom, Noa'
'Masunov, Art\"em E.'
'McCabe, Patrick'
'McMahon, David P.'
'Meekes, Hugo'
'Metz, Michael P.'
'Misquitta, Alston J.'
'Mohamed, Sharmarke'
'Monserrat, Bartomeu'
'Needs, Richard J.'
'Neumann, Marcus A.'
'Nyman, Jonas'
'Obata, Shigeaki'
'Oberhofer, Harald'
'Oganov, Artem R.'
'Orendt, Anita M.'
'Pagola, Gabriel I.'
'Pantelides, Constantinos C.'
'Pickard, Chris J.'
'Podeszwa, Rafal'
'Price, Louise S.'
'Price, Sarah L.'
'Pulido, Angeles'
'Read, Murray G.'
'Reuter, Karsten'
'Schneider, Elia'
'Schober, Christoph'
'Shields, Gregory P.'
'Singh, Pawanpreet'
'Sugden, Isaac J.'
'Szalewicz, Krzysztof'
'Taylor, Christopher R.'
'Tkatchenko, Alexandre'
'Tuckerman, Mark E.'
'Vacarro, Francesca'
'Vasileiadis, Manolis'
'Vazquez-Mayagoitia, Alvaro'
'Vogt, Leslie'
'Wang, Yanchao'
'Watson, Rona E.'
'de Wijs, Gilles A.'
'Yang, Jack'
'Zhu, Qiang'
'Groom, Colin R.'
_publ_section_title
;
 Report on the sixth blind test of organic crystal structure prediction
 methods
;
_journal_issue                   4
_journal_name_full               'Acta Crystallographica Section B'
_journal_page_first              439
_journal_page_last               459
_journal_paper_doi               10.1107/S2052520616007447
_journal_volume                  72
_journal_year                    2016
_chemical_compound_source        'see text'
_chemical_formula_moiety         'C8 N4 S3'
_chemical_formula_sum            'C8 N4 S3'
_chemical_formula_weight         248.33
_space_group_IT_number           14
_symmetry_cell_setting           monoclinic
_symmetry_Int_Tables_number      14
_symmetry_space_group_name_Hall  '-P 2ybc'
_symmetry_space_group_name_H-M   'P 1 21/c 1'
_atom_sites_solution_hydrogens   ' .'
_atom_sites_solution_primary     ' ?'
_atom_sites_solution_secondary   ' ?'
_cell_angle_alpha                90
_cell_angle_beta                 95.5640
_cell_angle_gamma                90
_cell_formula_units_Z            4
_cell_length_a                   9.68750
_cell_length_b                   6.07140
_cell_length_c                   19.47660
_cell_volume                     1140.152
_computing_publication_material  'PLATON (Spek, 2003)'
_diffrn_radiation_probe          x-ray
_diffrn_radiation_type           MoK\a
_diffrn_radiation_wavelength     0.71073
_diffrn_reflns_reduction_process
;
;
_exptl_absorpt_coefficient_mu    0.620
_exptl_absorpt_correction_type   ' ?'
_exptl_crystal_colour            ' ?'
_exptl_crystal_density_diffrn    1.447
_exptl_crystal_density_method    'Not Measured'
_exptl_crystal_description       ' ?'
_exptl_crystal_F_000             496
_refine_ls_extinction_method     ' ?'
_refine_ls_hydrogen_treatment    ' .'
_refine_ls_number_restraints     0
_refine_ls_weighting_scheme      ?
_iucr_refine_instructions_details
;
;
_cod_data_source_file            XXII-1_Goto_Obata.cif
_cod_data_source_block           XXII_R093
_cod_original_sg_symbol_H-M      'P 21/c'
_cod_struct_determination_method theoretical
_cod_database_code               2107833
loop_
_symmetry_equiv_pos_site_id
_symmetry_equiv_pos_as_xyz
1 x,y,z
2 -x,1/2+y,1/2-z
3 -x,-y,-z
4 x,1/2-y,1/2+z
loop_
_atom_site_label
_atom_site_type_symbol
_atom_site_thermal_displace_type
_atom_site_fract_x
_atom_site_fract_y
_atom_site_fract_z
_atom_site_occupancy
_atom_site_U_iso_or_equiv
S1 S Uiso 0.21939 0.08048 0.14337 1.000 0.0500
S2 S Uiso 0.43916 0.50497 0.14547 1.000 0.0500
S3 S Uiso 0.27791 0.43602 0.33164 1.000 0.0500
N1 N Uiso 0.37395 0.54654 0.27445 1.000 0.0500
N2 N Uiso 0.04217 0.24066 -0.03102 1.000 0.0500
N3 N Uiso 0.31746 0.71795 -0.02479 1.000 0.0500
N4 N Uiso 0.04429 -0.06694 0.31993 1.000 0.0500
C1 C Uiso 0.22068 0.27798 0.07712 1.000 0.0500
C2 C Uiso 0.31102 0.44821 0.07822 1.000 0.0500
C3 C Uiso 0.35328 0.42962 0.21669 1.000 0.0500
C4 C Uiso 0.26165 0.24687 0.21638 1.000 0.0500
C5 C Uiso 0.21273 0.22516 0.28018 1.000 0.0500
C6 C Uiso 0.11994 0.25008 0.01834 1.000 0.0500
C7 C Uiso 0.31050 0.59665 0.02088 1.000 0.0500
C8 C Uiso 0.12059 0.06400 0.30218 1.000 0.0500
loop_
_atom_type_symbol
_atom_type_description
_atom_type_scat_dispersion_real
_atom_type_scat_dispersion_imag
_atom_type_scat_source
C C 0.0033 0.0016 ' International Tables Vol C Tables 4.2.6.8 and 6.1.1.4'
N N 0.0061 0.0033 ' International Tables Vol C Tables 4.2.6.8 and 6.1.1.4'
S S 0.1246 0.1234 ' International Tables Vol C Tables 4.2.6.8 and 6.1.1.4'
loop_
_geom_angle_atom_site_label_1
_geom_angle_atom_site_label_2
_geom_angle_atom_site_label_3
_geom_angle
_geom_angle_publ_flag
C1 S1 C4 100.57 yes
C2 S2 C3 100.66 yes
N1 S3 C5 96.23 yes
S3 N1 C3 107.68 yes
S1 C1 C2 123.96 yes
S1 C1 C6 116.71 yes
C2 C1 C6 119.32 no
S2 C2 C1 124.98 yes
S2 C2 C7 114.06 yes
C1 C2 C7 120.93 no
S2 C3 N1 119.22 yes
S2 C3 C4 123.15 yes
N1 C3 C4 117.62 yes
S1 C4 C3 123.24 yes
S1 C4 C5 126.88 yes
C3 C4 C5 109.89 no
S3 C5 C4 108.50 yes
S3 C5 C8 123.18 yes
C4 C5 C8 128.29 no
N2 C6 C1 175.29 yes
N3 C7 C2 176.45 yes
N4 C8 C5 179.45 yes
loop_
_geom_bond_atom_site_label_1
_geom_bond_atom_site_label_2
_geom_bond_distance
_geom_bond_publ_flag
S1 C1 1.7624 yes
S1 C4 1.7599 yes
S2 C2 1.7493 yes
S2 C3 1.7462 yes
S3 N1 1.6606 yes
S3 C5 1.7086 yes
N1 C3 1.3289 yes
N2 C6 1.1639 yes
N3 C7 1.1618 yes
N4 C8 1.1608 yes
C1 C2 1.3531 no
C1 C6 1.4405 no
C2 C7 1.4347 no
C3 C4 1.4206 no
C4 C5 1.3785 no
C5 C8 1.4184 no
loop_
_geom_torsion_atom_site_label_1
_geom_torsion_atom_site_label_2
_geom_torsion_atom_site_label_3
_geom_torsion_atom_site_label_4
_geom_torsion
_geom_torsion_publ_flag
C1 S1 C4 C5 144.78 no
C4 S1 C1 C2 36.78 no
C4 S1 C1 C6 -144.38 no
C1 S1 C4 C3 -34.50 no
C3 S2 C2 C1 -36.08 no
C3 S2 C2 C7 145.72 no
C2 S2 C3 N1 -143.18 no
C2 S2 C3 C4 37.13 no
C5 S3 N1 C3 1.95 no
N1 S3 C5 C8 179.04 no
N1 S3 C5 C4 -2.70 no
S3 N1 C3 C4 -0.73 no
S3 N1 C3 S2 179.56 no
C6 C1 C2 C7 -1.93 no
S1 C1 C2 C7 176.89 no
C6 C1 C2 S2 180.00 no
S1 C1 C2 S2 -1.20 no
S2 C3 C4 S1 -2.19 no
S2 C3 C4 C5 178.42 no
N1 C3 C4 C5 -1.29 no
N1 C3 C4 S1 178.11 no
S1 C4 C5 S3 -176.78 no
C3 C4 C5 C8 -179.28 no
S1 C4 C5 C8 1.36 no
C3 C4 C5 S3 2.58 no
