#------------------------------------------------------------------------------
#$Date: 2023-12-05 10:34:00 +0200 (Tue, 05 Dec 2023) $
#$Revision: 288031 $
#$URL: file:///home/coder/svn-repositories/cod/cif/2/10/78/2107812.cif $
#------------------------------------------------------------------------------
#
# This file is available in the Crystallography Open Database (COD),
# http://www.crystallography.net/. The original data for this entry
# were provided by IUCr Journals, http://journals.iucr.org/.
#
# The file may be used within the scientific community so long as
# proper attribution is given to the journal article from which the
# data were obtained.
#
data_2107812
loop_
_publ_author_name
'Reilly, Anthony M.'
'Cooper, Richard I.'
'Adjiman, Claire S.'
'Bhattacharya, Saswata'
'Boese, A. Daniel'
'Brandenburg, Jan Gerit'
'Bygrave, Peter J.'
'Bylsma, Rita'
'Campbell, Josh E.'
'Car, Roberto'
'Case, David H.'
'Chadha, Renu'
'Cole, Jason C.'
'Cosburn, Katherine'
'Cuppen, Herma M.'
'Curtis, Farren'
'Day, Graeme M.'
'DiStasio Jr, Robert A.'
'Dzyabchenko, Alexander'
'van Eijck, Bouke P.'
'Elking, Dennis M.'
'van den Ende, Joost A.'
'Facelli, Julio C.'
'Ferraro, Marta B.'
'Fusti-Molnar, Laszlo'
'Gatsiou, Christina-Anna'
'Gee, Thomas S.'
'de Gelder, Ren\'e'
'Ghiringhelli, Luca M.'
'Goto, Hitoshi'
'Grimme, Stefan'
'Guo, Rui'
'Hofmann, Detlef W. M.'
'Hoja, Johannes'
'Hylton, Rebecca K.'
'Iuzzolino, Luca'
'Jankiewicz, Wojciech'
'de Jong, Dani\"el T.'
'Kendrick, John'
'de Klerk, Niek J. J.'
'Ko, Hsin-Yu'
'Kuleshova, Liudmila N.'
'Li, Xiayue'
'Lohani, Sanjaya'
'Leusen, Frank J. J.'
'Lund, Albert M.'
'Lv, Jian'
'Ma, Yanming'
'Marom, Noa'
'Masunov, Art\"em E.'
'McCabe, Patrick'
'McMahon, David P.'
'Meekes, Hugo'
'Metz, Michael P.'
'Misquitta, Alston J.'
'Mohamed, Sharmarke'
'Monserrat, Bartomeu'
'Needs, Richard J.'
'Neumann, Marcus A.'
'Nyman, Jonas'
'Obata, Shigeaki'
'Oberhofer, Harald'
'Oganov, Artem R.'
'Orendt, Anita M.'
'Pagola, Gabriel I.'
'Pantelides, Constantinos C.'
'Pickard, Chris J.'
'Podeszwa, Rafal'
'Price, Louise S.'
'Price, Sarah L.'
'Pulido, Angeles'
'Read, Murray G.'
'Reuter, Karsten'
'Schneider, Elia'
'Schober, Christoph'
'Shields, Gregory P.'
'Singh, Pawanpreet'
'Sugden, Isaac J.'
'Szalewicz, Krzysztof'
'Taylor, Christopher R.'
'Tkatchenko, Alexandre'
'Tuckerman, Mark E.'
'Vacarro, Francesca'
'Vasileiadis, Manolis'
'Vazquez-Mayagoitia, Alvaro'
'Vogt, Leslie'
'Wang, Yanchao'
'Watson, Rona E.'
'de Wijs, Gilles A.'
'Yang, Jack'
'Zhu, Qiang'
'Groom, Colin R.'
_publ_section_title
;
 Report on the sixth blind test of organic crystal structure prediction
 methods
;
_journal_issue                   4
_journal_name_full               'Acta Crystallographica Section B'
_journal_page_first              439
_journal_page_last               459
_journal_paper_doi               10.1107/S2052520616007447
_journal_volume                  72
_journal_year                    2016
_chemical_compound_source        'see text'
_chemical_formula_moiety         'C8 N4 S3'
_chemical_formula_sum            'C8 N4 S3'
_chemical_formula_weight         248.33
_space_group_IT_number           14
_symmetry_cell_setting           monoclinic
_symmetry_Int_Tables_number      14
_symmetry_space_group_name_Hall  '-P 2ybc'
_symmetry_space_group_name_H-M   'P 1 21/c 1'
_atom_sites_solution_hydrogens   ' .'
_atom_sites_solution_primary     ' ?'
_atom_sites_solution_secondary   ' ?'
_cell_angle_alpha                90
_cell_angle_beta                 91.0840
_cell_angle_gamma                90
_cell_formula_units_Z            4
_cell_length_a                   13.79480
_cell_length_b                   7.47570
_cell_length_c                   10.84930
_cell_volume                     1118.642
_computing_publication_material  'PLATON (Spek, 2003)'
_diffrn_radiation_probe          x-ray
_diffrn_radiation_type           MoK\a
_diffrn_radiation_wavelength     0.71073
_diffrn_reflns_reduction_process
;
;
_exptl_absorpt_coefficient_mu    0.632
_exptl_absorpt_correction_type   ' ?'
_exptl_crystal_colour            ' ?'
_exptl_crystal_density_diffrn    1.475
_exptl_crystal_density_method    'Not Measured'
_exptl_crystal_description       ' ?'
_exptl_crystal_F_000             496
_refine_ls_extinction_method     ' ?'
_refine_ls_hydrogen_treatment    ' .'
_refine_ls_number_restraints     0
_refine_ls_weighting_scheme      ?
_iucr_refine_instructions_details
;
;
_cod_data_source_file            XXII-1_Goto_Obata.cif
_cod_data_source_block           XXII_R072
_cod_original_sg_symbol_H-M      'P 21/c'
_cod_struct_determination_method theoretical
_cod_database_code               2107812
loop_
_symmetry_equiv_pos_site_id
_symmetry_equiv_pos_as_xyz
1 x,y,z
2 -x,1/2+y,1/2-z
3 -x,-y,-z
4 x,1/2-y,1/2+z
loop_
_atom_site_label
_atom_site_type_symbol
_atom_site_thermal_displace_type
_atom_site_fract_x
_atom_site_fract_y
_atom_site_fract_z
_atom_site_occupancy
_atom_site_U_iso_or_equiv
S1 S Uiso 0.20780 1.03749 0.14933 1.000 0.0500
S2 S Uiso 0.32554 0.88038 0.39625 1.000 0.0500
S3 S Uiso 0.12683 0.51622 0.26005 1.000 0.0500
N1 N Uiso 0.21212 0.59565 0.35505 1.000 0.0500
N2 N Uiso 0.43052 1.18975 -0.00882 1.000 0.0500
N3 N Uiso 0.56842 1.02976 0.29230 1.000 0.0500
N4 N Uiso -0.00112 0.72318 -0.01719 1.000 0.0500
C1 C Uiso 0.33434 1.04863 0.17038 1.000 0.0500
C2 C Uiso 0.38198 0.98758 0.27220 1.000 0.0500
C3 C Uiso 0.23644 0.75752 0.31580 1.000 0.0500
C4 C Uiso 0.18561 0.82478 0.21048 1.000 0.0500
C5 C Uiso 0.11872 0.70136 0.16810 1.000 0.0500
C6 C Uiso 0.38644 1.12844 0.07109 1.000 0.0500
C7 C Uiso 0.48499 1.00941 0.28469 1.000 0.0500
C8 C Uiso 0.05301 0.71543 0.06602 1.000 0.0500
loop_
_atom_type_symbol
_atom_type_description
_atom_type_scat_dispersion_real
_atom_type_scat_dispersion_imag
_atom_type_scat_source
C C 0.0033 0.0016 ' International Tables Vol C Tables 4.2.6.8 and 6.1.1.4'
N N 0.0061 0.0033 ' International Tables Vol C Tables 4.2.6.8 and 6.1.1.4'
S S 0.1246 0.1234 ' International Tables Vol C Tables 4.2.6.8 and 6.1.1.4'
loop_
_geom_angle_atom_site_label_1
_geom_angle_atom_site_label_2
_geom_angle_atom_site_label_3
_geom_angle
_geom_angle_publ_flag
C1 S1 C4 100.02 yes
C2 S2 C3 100.01 yes
N1 S3 C5 96.35 yes
S3 N1 C3 107.90 yes
S1 C1 C2 123.74 yes
S1 C1 C6 115.59 yes
C2 C1 C6 120.66 no
S2 C2 C1 124.22 yes
S2 C2 C7 115.55 yes
C1 C2 C7 120.23 no
S2 C3 N1 119.77 yes
S2 C3 C4 123.05 yes
N1 C3 C4 117.15 yes
S1 C4 C3 122.58 yes
S1 C4 C5 127.02 yes
C3 C4 C5 110.40 no
S3 C5 C4 108.16 yes
S3 C5 C8 123.27 yes
C4 C5 C8 128.58 no
N2 C6 C1 178.21 yes
N3 C7 C2 178.34 yes
N4 C8 C5 178.58 yes
loop_
_geom_bond_atom_site_label_1
_geom_bond_atom_site_label_2
_geom_bond_distance
_geom_bond_publ_flag
S1 C1 1.7582 yes
S1 C4 1.7522 yes
S2 C2 1.7605 yes
S2 C3 1.7537 yes
S3 N1 1.6593 yes
S3 C5 1.7085 yes
N1 C3 1.3280 yes
N2 C6 1.1625 yes
N3 C7 1.1623 yes
N4 C8 1.1621 yes
C1 C2 1.3539 no
C1 C6 1.4360 no
C2 C7 1.4342 no
C3 C4 1.4212 no
C4 C5 1.3777 no
C5 C8 1.4217 no
loop_
_geom_torsion_atom_site_label_1
_geom_torsion_atom_site_label_2
_geom_torsion_atom_site_label_3
_geom_torsion_atom_site_label_4
_geom_torsion
_geom_torsion_publ_flag
C1 S1 C4 C5 -142.94 no
C4 S1 C1 C2 -40.15 no
C4 S1 C1 C6 139.91 no
C1 S1 C4 C3 37.89 no
C3 S2 C2 C1 36.79 no
C3 S2 C2 C7 -143.64 no
C2 S2 C3 N1 144.01 no
C2 S2 C3 C4 -37.84 no
C5 S3 N1 C3 -1.90 no
N1 S3 C5 C8 -178.90 no
N1 S3 C5 C4 1.66 no
S3 N1 C3 C4 1.69 no
S3 N1 C3 S2 179.95 no
C6 C1 C2 C7 2.90 no
S1 C1 C2 C7 -177.04 no
C6 C1 C2 S2 -177.55 no
S1 C1 C2 S2 2.51 no
S2 C3 C4 S1 0.61 no
S2 C3 C4 C5 -178.68 no
N1 C3 C4 C5 -0.49 no
N1 C3 C4 S1 178.80 no
S1 C4 C5 S3 179.81 no
C3 C4 C5 C8 179.67 no
S1 C4 C5 C8 0.41 no
C3 C4 C5 S3 -0.94 no
