#------------------------------------------------------------------------------
#$Date: 2016-02-16 22:30:59 +0200 (Tue, 16 Feb 2016) $
#$Revision: 176467 $
#$URL: svn://www.crystallography.net/cod/cif/4/11/62/4116294.cif $
#------------------------------------------------------------------------------
#
# This file is available in the Crystallography Open Database (COD),
# http://www.crystallography.net/
#
# All data on this site have been placed in the public domain by the
# contributors.
#
data_4116294
loop_
_publ_author_name
'T. M. Barclay'
'A. W. Cordes'
'R. C. Haddon'
'M. E. Itkis'
'R. T. Oakley'
'R. W. Reed'
'H. Zhang'
_publ_section_title
;
 Preparation and Characterization of a Neutral \p-Radical Molecular
 Conductor
;
_journal_name_full               'Journal of the American Chemical Society'
_journal_page_first              969
_journal_page_last               976
_journal_paper_doi               10.1021/ja983490s
_journal_volume                  121
_journal_year                    1999
_chemical_formula_moiety         'S3 N5 C4 '
_chemical_formula_sum            'C4 N5 S3'
_chemical_formula_weight         214.26
_chemical_name_systematic        ?
_space_group_IT_number           14
_symmetry_cell_setting           monoclinic
_symmetry_space_group_name_Hall  '-P 2yn'
_symmetry_space_group_name_H-M   'P 1 21/n 1'
_cell_angle_alpha                90.0
_cell_angle_beta                 103.297(16)
_cell_angle_gamma                90.0
_cell_formula_units_Z            4
_cell_length_a                   6.6749(16)
_cell_length_b                   11.7178(14)
_cell_length_c                   8.6148(14)
_cell_measurement_reflns_used    25
_cell_measurement_temperature    293
_cell_measurement_theta_max      11.00
_cell_measurement_theta_min      7.00
_cell_volume                     655.7(2)
_computing_data_reduction        'NRCVAX DATRD2'
_computing_molecular_graphics    NRCVAX
_computing_publication_material  'NRCVAX TABLES Jan 94 Version'
_computing_structure_refinement  'NRCVAX LSTSQ'
_computing_structure_solution    'NRCVAX SOLVER'
_diffrn_ambient_temperature      293
_diffrn_measurement_device       'Nonius CAD-4    '
_diffrn_measurement_method       'Theta/2theta scan b/P/b '
_diffrn_radiation_monochromator  graphite
_diffrn_radiation_source         'xray tube'
_diffrn_radiation_type           'Molybdenum K\a'
_diffrn_radiation_wavelength     0.7107
_diffrn_reflns_av_R_equivalents  0.011
_diffrn_reflns_limit_h_max       0
_diffrn_reflns_limit_h_min       -7
_diffrn_reflns_limit_k_max       0
_diffrn_reflns_limit_k_min       -13
_diffrn_reflns_limit_l_max       10
_diffrn_reflns_limit_l_min       -10
_diffrn_reflns_number            1242
_diffrn_reflns_theta_max         24.90
_diffrn_reflns_theta_min         2.00
_diffrn_standards_decay_%        1.9
_diffrn_standards_interval_time  60
_diffrn_standards_number         3
_exptl_absorpt_coefficient_mu    1.02
_exptl_absorpt_correction_T_max  0.8742
_exptl_absorpt_correction_T_min  0.8209
_exptl_absorpt_correction_type   integration
_exptl_crystal_colour            black
_exptl_crystal_density_diffrn    2.17
_exptl_crystal_F_000             429.4
_exptl_crystal_size_max          0.28
_exptl_crystal_size_mid          0.24
_exptl_crystal_size_min          0.14
_refine_diff_density_max         0.36
_refine_diff_density_min         -0.38
_refine_ls_goodness_of_fit_obs   1.25
_refine_ls_matrix_type           full
_refine_ls_number_parameters     109
_refine_ls_number_reflns         1010
_refine_ls_R_factor_all          0.037
_refine_ls_shift/esd_max         0.000
_refine_ls_structure_factor_coef F
_refine_ls_weighting_details     'w = 1/(\s^2^(F)+0.0009F^2^)'
_refine_ls_weighting_scheme      calc
_refine_ls_wR_factor_all         0.050
_reflns_number_observed          1010
_reflns_number_total             1142
_reflns_observed_criterion       'Inet > 1.0\s(Inet)'
_cod_data_source_file            ja983490s_1.cif
_cod_data_source_block           TDP-1,2,3-DTA
_cod_depositor_comments
;
The following automatic conversions were performed:

'_refine_ls_weighting_scheme' value '1/(\s^2^(F)+0.0009F^2^)' was
changed to 'calc'. New tag '_refine_ls_weighting_details' was
created. The value of the new tag was set to 'w =
1/(\s^2^(F)+0.0009F^2^)'.

Automatic conversion script
Id: cif_fix_values 3143 2015-03-26 13:38:13Z robertas 
;
_cod_original_sg_symbol_H-M      'P 21/n'
_cod_original_formula_sum        'S3 N5 C4 '
_cod_database_code               4116294
loop_
_symmetry_equiv_pos_as_xyz
x,y,z
-x,-y,-z
1/2-x,1/2+y,1/2-z
1/2+x,1/2-y,1/2+z
loop_
_atom_site_aniso_label
_atom_site_aniso_U_11
_atom_site_aniso_U_22
_atom_site_aniso_U_33
_atom_site_aniso_U_12
_atom_site_aniso_U_13
_atom_site_aniso_U_23
_atom_site_aniso_type_symbol
S1 0.0499(6) 0.0225(5) 0.0229(5) 0.0004(4) 0.0084(4) 0.0029(3) S
S2 0.0346(5) 0.0279(5) 0.0180(5) -0.0004(4) 0.0041(4) 0.0053(4) S
S3 0.0351(5) 0.0272(5) 0.0220(5) -0.0023(4) 0.0111(4) 0.0032(3) S
N1 0.0354(17) 0.0225(16) 0.0193(14) -0.0004(13) 0.0071(13) -0.0012(12) n
N2 0.0280(15) 0.0211(15) 0.0206(14) -0.0003(12) 0.0069(11) -0.0016(11) n
N3 0.0285(16) 0.0247(16) 0.0202(15) 0.0014(12) 0.0091(12) 0.0017(12) n
N4 0.0388(18) 0.0234(16) 0.0208(15) 0.0012(13) 0.0125(13) 0.0033(12) n
N5 0.0358(17) 0.0196(15) 0.0212(15) 0.0022(13) 0.0049(12) -0.0018(11) n
C1 0.0243(17) 0.0203(17) 0.0220(17) 0.0009(14) 0.0040(13) 0.0021(13) C
C2 0.0215(17) 0.0225(18) 0.0202(17) 0.0004(13) 0.0056(13) 0.0012(13) C
C3 0.0198(17) 0.0205(17) 0.0210(17) 0.0015(13) 0.0040(13) -0.0014(13) C
C4 0.0245(18) 0.0225(18) 0.0218(18) 0.0016(14) 0.0082(14) -0.0022(13) C
loop_
_atom_site_label
_atom_site_fract_x
_atom_site_fract_y
_atom_site_fract_z
_atom_site_U_iso_or_equiv
_atom_site_thermal_displace_type
_atom_site_type_symbol
S1 0.67752(15) 0.22234(8) 0.16892(10) 0.0318(5) Uij S
S2 0.70755(14) 0.31574(8) 0.37396(10) 0.0271(5) Uij S
S3 0.75159(14) 0.58467(8) -0.34348(10) 0.0274(5) Uij S
N1 0.7383(4) 0.44091(24) 0.3062(3) 0.0256(16) Uij n
N2 0.7683(4) 0.54689(23) 0.0842(3) 0.0231(14) Uij n
N3 0.7837(4) 0.63089(25) -0.1619(3) 0.0239(15) Uij n
N4 0.7066(5) 0.44834(25) -0.3216(3) 0.0267(16) Uij n
N5 0.6876(4) 0.33412(23) -0.0966(3) 0.0258(15) Uij n
C1 0.7014(5) 0.3415(3) 0.0577(4) 0.0224(16) Uij C
C2 0.7378(5) 0.4471(3) 0.1506(4) 0.0213(16) Uij C
C3 0.7576(5) 0.5396(3) -0.0735(4) 0.0205(15) Uij C
C4 0.7151(5) 0.4349(3) -0.1650(4) 0.0225(16) Uij C
loop_
_atom_type_symbol
_atom_type_scat_dispersion_real
_atom_type_scat_dispersion_imag
_atom_type_scat_source
S 0.110 0.124 'International Tables Vol. IV Table 2.2B'
N 0.004 0.003 'International Tables Vol. IV Table 2.2B'
C 0.002 0.002 'International Tables Vol. IV Table 2.2B'
loop_
_diffrn_standard_refln_index_h
_diffrn_standard_refln_index_k
_diffrn_standard_refln_index_l
-2 0 4
-1 -5 2
-1 -4 2
loop_
_geom_angle_atom_site_label_1
_geom_angle_atom_site_label_2
_geom_angle_atom_site_label_3
_geom_angle
S2 S1 C1 92.49(12)
S1 S2 N1 99.75(11)
N3 S3 N4 101.60(15)
S2 N1 C2 116.15(23)
C2 N2 C3 113.5(3)
S3 N3 C3 105.93(23)
S3 N4 C4 105.15(23)
C1 N5 C4 113.5(3)
S1 C1 N5 121.1(3)
S1 C1 C2 114.00(24)
N5 C1 C2 124.9(3)
N1 C2 N2 120.6(3)
N1 C2 C1 117.5(3)
N2 C2 C1 121.9(3)
N2 C3 N3 122.4(3)
N2 C3 C4 124.0(3)
N3 C3 C4 113.5(3)
N4 C4 N5 124.1(3)
N4 C4 C3 113.8(3)
N5 C4 C3 122.1(3)
loop_
_geom_bond_atom_site_label_1
_geom_bond_atom_site_label_2
_geom_bond_distance
S1 S2 2.0482(13)
S1 C1 1.721(3)
S2 N1 1.609(3)
S3 N3 1.622(3)
S3 N4 1.644(3)
N1 C2 1.342(4)
N2 C2 1.338(4)
N2 C3 1.347(4)
N3 C3 1.347(4)
N4 C4 1.347(4)
N5 C1 1.314(4)
N5 C4 1.351(4)
C1 C2 1.463(5)
C3 C4 1.450(5)
