#------------------------------------------------------------------------------
#$Date: 2016-03-22 23:30:56 +0200 (Tue, 22 Mar 2016) $
#$Revision: 179064 $
#$URL: svn://www.crystallography.net/cod/cif/4/30/26/4302640.cif $
#------------------------------------------------------------------------------
#
# This file is available in the Crystallography Open Database (COD),
# http://www.crystallography.net/
#
# All data on this site have been placed in the public domain by the
# contributors.
#
data_4302640
loop_
_publ_author_name
'Philippe F. Weck'
'Eunja Kim'
'Fr\'ed\'eric Poineau'
'Efrain E. Rodriguez'
'Alfred P. Sattelberger'
'Kenneth R. Czerwinski'
_publ_section_title
;
Technetium(IV) Halides Predicted from First-Principles
;
_journal_name_full               'Inorganic Chemistry'
_journal_page_first              6555
_journal_page_last               6558
_journal_paper_doi               10.1021/ic900476m
_journal_volume                  48
_journal_year                    2009
_space_group_IT_number           61
_symmetry_cell_setting           orthorhombic
_symmetry_Int_Tables_number      61
_symmetry_space_group_name_Hall  '-P 2ac 2ab'
_symmetry_space_group_name_H-M   'P b c a'
_audit_creation_date             2009-02-24
_audit_creation_method           'Materials Studio'
_cell_angle_alpha                90.0000
_cell_angle_beta                 90.0000
_cell_angle_gamma                90.0000
_cell_length_a                   12.1484
_cell_length_b                   14.6823
_cell_length_c                   6.2895
_cell_volume                     1121.836
_cod_data_source_file            ic900476m_si_001_2.cif
_cod_data_source_block           TcCl4
_cod_database_code               4302640
loop_
_symmetry_equiv_pos_as_xyz
x,y,z
-x+1/2,-y,z+1/2
-x,y+1/2,-z+1/2
x+1/2,-y+1/2,-z
-x,-y,-z
x+1/2,y,-z+1/2
x,-y+1/2,z+1/2
-x+1/2,y+1/2,z
loop_
_atom_site_label
_atom_site_type_symbol
_atom_site_fract_x
_atom_site_fract_y
_atom_site_fract_z
_atom_site_U_iso_or_equiv
_atom_site_adp_type
_atom_site_occupancy
Tc1 Tc 0.62623 0.17906 0.90286 0.00000 Uiso 1.00
Cl9 Cl 0.72803 0.30091 0.08340 0.00000 Uiso 1.00
Cl10 Cl 0.52436 0.19939 0.22195 0.00000 Uiso 1.00
Cl11 Cl 0.74776 0.07467 0.02470 0.00000 Uiso 1.00
Cl12 Cl 0.50538 0.07407 0.78230 0.00000 Uiso 1.00
loop_
_geom_bond_atom_site_label_1
_geom_bond_atom_site_label_2
_geom_bond_distance
_geom_bond_site_symmetry_2
Tc1 Cl9 2.454 1_556
Tc1 Cl10 2.377 1_556
Tc1 Cl11 2.262 1_556
Tc1 Cl12 2.260 .
Tc1 Cl9 2.378 7
Tc1 Cl10 2.452 7
Cl9 Tc1 2.454 1_554
Cl9 Tc1 2.378 7_554
Cl10 Tc1 2.377 1_554
Cl10 Tc1 2.452 7_554
Cl11 Tc1 2.262 1_554
