#------------------------------------------------------------------------------
#$Date: 2019-11-17 13:49:02 +0200 (Sun, 17 Nov 2019) $
#$Revision: 230273 $
#$URL: file:///home/coder/svn-repositories/cod/cif/7/05/69/7056913.cif $
#------------------------------------------------------------------------------
#
# This file is available in the Crystallography Open Database (COD),
# http://www.crystallography.net/
#
# All data on this site have been placed in the public domain by the
# contributors.
#
data_7056913
loop_
_publ_author_name
'Ma, Qing'
'Gu, Hao'
'Huang, Jinglun'
'Nie, Fude'
'Fan, Guijuan'
'Liao, Longyu'
'Yang, Wei'
_publ_section_title
;
 Formation of trinitromethyl functionalized 1,2,4-triazole-based energetic
 ionic salts and a zwitterionic salt directed by an intermolecular and
 intramolecular metathesis strategy
;
_journal_issue                   4
_journal_name_full               'New Journal of Chemistry'
_journal_page_first              2376
_journal_paper_doi               10.1039/C7NJ03939E
_journal_volume                  42
_journal_year                    2018
_chemical_absolute_configuration rmad
_chemical_formula_moiety         'C3 N8 O6'
_chemical_formula_sum            'C3 N8 O6'
_chemical_formula_weight         244.11
_space_group_crystal_system      orthorhombic
_space_group_IT_number           18
_space_group_name_Hall           'P 2 2ab'
_space_group_name_H-M_alt        'P 21 21 2'
_symmetry_space_group_name_Hall  'P 2 2ab'
_symmetry_space_group_name_H-M   'P 21 21 2'
_atom_sites_solution_primary     dual
_audit_creation_date             2016-10-10
_audit_creation_method
;
Olex2 1.2
(compiled 2016.02.19 svn.r3266 for OlexSys, GUI svn.r5227)
;
_audit_update_record
;
2016-12-28 deposited with the CCDC.
2018-01-17 downloaded from the CCDC.
;
_cell_angle_alpha                90
_cell_angle_beta                 90
_cell_angle_gamma                90
_cell_formula_units_Z            4
_cell_length_a                   7.7188(10)
_cell_length_b                   16.867(2)
_cell_length_c                   6.4384(8)
_cell_measurement_reflns_used    2320
_cell_measurement_temperature    130
_cell_measurement_theta_max      29.00
_cell_measurement_theta_min      2.41
_cell_volume                     838.23(18)
_computing_cell_refinement       'SAINT v7.68A (Bruker, 2009)'
_computing_data_reduction        'SAINT v7.68A (Bruker, 2009)'
_computing_molecular_graphics    'Olex2 (Dolomanov et al., 2009)'
_computing_publication_material  'Olex2 (Dolomanov et al., 2009)'
_computing_structure_refinement  'ShelXL (Sheldrick, 2015)'
_computing_structure_solution    'ShelXT (Sheldrick, 2015)'
_diffrn_ambient_temperature      130
_diffrn_measured_fraction_theta_full 1.000
_diffrn_measured_fraction_theta_max 0.997
_diffrn_measurement_device_type  'Bruker APEX-II CCD'
_diffrn_measurement_method       '\f and \w scans'
_diffrn_radiation_monochromator  graphite
_diffrn_radiation_type           MoK\a
_diffrn_radiation_wavelength     0.71073
_diffrn_reflns_av_R_equivalents  0.0321
_diffrn_reflns_av_unetI/netI     0.0339
_diffrn_reflns_Laue_measured_fraction_full 1.000
_diffrn_reflns_Laue_measured_fraction_max 0.997
_diffrn_reflns_limit_h_max       11
_diffrn_reflns_limit_h_min       -10
_diffrn_reflns_limit_k_max       24
_diffrn_reflns_limit_k_min       -24
_diffrn_reflns_limit_l_max       7
_diffrn_reflns_limit_l_min       -9
_diffrn_reflns_number            8443
_diffrn_reflns_point_group_measured_fraction_full 1.000
_diffrn_reflns_point_group_measured_fraction_max 0.997
_diffrn_reflns_theta_full        26.000
_diffrn_reflns_theta_max         30.475
_diffrn_reflns_theta_min         2.415
_diffrn_standards_number         0
_exptl_absorpt_coefficient_mu    0.184
_exptl_absorpt_correction_T_max  0.7461
_exptl_absorpt_correction_T_min  0.7003
_exptl_absorpt_correction_type   multi-scan
_exptl_absorpt_process_details
;
SADABS-2008/1 (Bruker,2008) was used for absorption correction.
wR2(int) was 0.0504 before and 0.0453 after correction.
The Ratio of minimum to maximum transmission is 0.9386.
The \l/2 correction factor is 0.0015.
;
_exptl_crystal_colour            colourless
_exptl_crystal_density_diffrn    1.934
_exptl_crystal_description       block
_exptl_crystal_F_000             488
_exptl_crystal_size_max          0.15
_exptl_crystal_size_mid          0.12
_exptl_crystal_size_min          0.1
_refine_diff_density_max         0.220
_refine_diff_density_min         -0.203
_refine_diff_density_rms         0.046
_refine_ls_abs_structure_details
;
 Flack x determined using 807 quotients [(I+)-(I-)]/[(I+)+(I-)]
 (Parsons, Flack and Wagner, Acta Cryst. B69 (2013) 249-259).
;
_refine_ls_abs_structure_Flack   0.6(7)
_refine_ls_extinction_method     none
_refine_ls_goodness_of_fit_ref   1.023
_refine_ls_hydrogen_treatment    undef
_refine_ls_matrix_type           full
_refine_ls_number_parameters     154
_refine_ls_number_reflns         2549
_refine_ls_number_restraints     0
_refine_ls_restrained_S_all      1.023
_refine_ls_R_factor_all          0.0444
_refine_ls_R_factor_gt           0.0341
_refine_ls_shift/su_max          0.000
_refine_ls_shift/su_mean         0.000
_refine_ls_structure_factor_coef Fsqd
_refine_ls_weighting_details
'w=1/[\s^2^(Fo^2^)+(0.0366P)^2^+0.0940P] where P=(Fo^2^+2Fc^2^)/3'
_refine_ls_weighting_scheme      calc
_refine_ls_wR_factor_gt          0.0735
_refine_ls_wR_factor_ref         0.0776
_reflns_Friedel_coverage         0.704
_reflns_Friedel_fraction_full    1.000
_reflns_Friedel_fraction_max     0.996
_reflns_number_gt                2172
_reflns_number_total             2549
_reflns_threshold_expression     'I > 2\s(I)'
_iucr_refine_instructions_details
;

    dm16641.res created by SHELXL-2014/7

TITL dm16641_a.res in P2(1)2(1)2
REM Old TITL dm16641 in P2(1)2(1)2
REM SHELXT solution in P2(1)2(1)2
REM R1 0.088, Rweak 0.024, Alpha 0.022, Orientation as input
REM Flack x = 0.019 ( 0.586 ) from Parsons' quotients
REM Formula found by SHELXT: C11 N3 O3
CELL 0.71073 7.7188 16.8672 6.4384 90 90 90
ZERR 4 0.001 0.0022 0.0008 0 0 0
LATT -1
SYMM -X,-Y,+Z
SYMM 0.5-X,0.5+Y,-Z
SYMM 0.5+X,0.5-Y,-Z
SFAC C N O
UNIT 12 32 24
 
L.S. 4
PLAN  20 0 0
SIZE 0.1 0.12 0.15
TEMP -143.15
CONN 3 C2
CONN 3 C1
BOND $H
list 4
fmap 2
MORE -1
ACTA 52
CONF
REM <olex2.extras>
REM <HklSrc "%.\\dm16641.hkl">
REM </olex2.extras>
 
WGHT    0.036600    0.094000
FVAR       0.79561
O1    3    0.186307    0.539719    0.860588    11.00000    0.02689    0.03133 =
         0.02763    0.00528    0.00557   -0.00404
O2    3    0.192356    0.502096    0.536517    11.00000    0.02561    0.02416 =
         0.03837   -0.00924   -0.00141   -0.00494
O3    3    0.507439    0.589351    0.379410    11.00000    0.02302    0.03086 =
         0.02441   -0.00146    0.00467    0.00272
O4    3    0.269070    0.639414    0.255994    11.00000    0.03978    0.04969 =
         0.02013   -0.00283   -0.00943    0.01122
O5    3    0.004705    0.663375    0.652453    11.00000    0.01640    0.03302 =
         0.05049   -0.00764   -0.00342    0.00222
O6    3    0.189010    0.754422    0.556626    11.00000    0.03635    0.02097 =
         0.03104    0.00273   -0.00446    0.00546
N1    2    0.555230    0.600743    0.829177    11.00000    0.01935    0.02064 =
         0.02129   -0.00065   -0.00319    0.00076
N2    2    0.447710    0.725852    0.851330    11.00000    0.02072    0.02171 =
         0.02307   -0.00346   -0.00199    0.00072
N3    2    0.585485    0.723714    0.978298    11.00000    0.02304    0.02406 =
         0.02597   -0.00331   -0.00393    0.00027
N4    2    0.781556    0.621167    1.069672    11.00000    0.02063    0.01987 =
         0.02281   -0.00176   -0.00148   -0.00250
N5    2    0.890590    0.598109    1.160207    11.00000    0.02576    0.02755 =
         0.03462   -0.00072   -0.00804   -0.00082
N6    2    0.218989    0.548392    0.677201    11.00000    0.01450    0.01797 =
         0.02769   -0.00013   -0.00115   -0.00017
N7    2    0.364553    0.618946    0.394710    11.00000    0.02315    0.02119 =
         0.01838   -0.00145   -0.00182   -0.00089
N8    2    0.148253    0.687907    0.609227    11.00000    0.02129    0.02218 =
         0.02336   -0.00380   -0.00444    0.00665
C1    1    0.641504    0.649464    0.955863    11.00000    0.01606    0.02458 =
         0.01755    0.00079   -0.00101    0.00020
C2    1    0.435227    0.652437    0.768547    11.00000    0.01530    0.01907 =
         0.01544    0.00072    0.00156   -0.00203
C3    1    0.297893    0.628825    0.618719    11.00000    0.01469    0.01760 =
         0.01819   -0.00038   -0.00020    0.00086
HKLF 4
 
REM  dm16641_a.res in P2(1)2(1)2
REM R1 =  0.0341 for    2172 Fo > 4sig(Fo)  and  0.0444 for all    2549 data
REM    154 parameters refined using      0 restraints
 
END  
     
WGHT      0.0365      0.0948 

REM Highest difference peak  0.220,  deepest hole -0.203,  1-sigma level  0.046
Q1    1   0.3769  0.6457  0.7005  11.00000  0.05    0.22
Q2    1   0.2640  0.5936  0.6453  11.00000  0.05    0.20
Q3    1   0.6460  0.6894  0.9133  11.00000  0.05    0.19
Q4    1   0.5019  0.6260  0.7558  11.00000  0.05    0.19
Q5    1   0.1643  0.5887  0.8611  11.00000  0.05    0.18
Q6    1   0.8883  0.6469  1.2634  11.00000  0.05    0.17
Q7    1   0.0756  0.6133  0.7601  11.00000  0.05    0.16
Q8    1   1.0105  0.6234  1.3704  11.00000  0.05    0.15
Q9    1   0.5792  0.5969  0.7609  11.00000  0.05    0.15
Q10   1   0.5409  0.5526  0.8152  11.00000  0.05    0.15
Q11   1   0.3547  0.7723  0.5290  11.00000  0.05    0.14
Q12   1   0.5513  0.5661  0.6026  11.00000  0.05    0.14
Q13   1   0.0873  0.5834  0.8790  11.00000  0.05    0.14
Q14   1   0.1935  0.6589  0.9403  11.00000  0.05    0.14
Q15   1   0.1277  0.6265  0.8457  11.00000  0.05    0.14
Q16   1   0.9564  0.6051  1.2670  11.00000  0.05    0.14
Q17   1   0.1869  0.4424  0.3961  11.00000  0.05    0.13
Q18   1   0.2771  0.7187  0.3020  11.00000  0.05    0.13
Q19   1   0.6825  0.6410  1.0069  11.00000  0.05    0.13
Q20   1   0.6205  0.6310  0.8705  11.00000  0.05    0.13

  REM The information below was added by Olex2.
  REM
  REM R1 = 0.0341 for 2172 Fo > 4sig(Fo) and 0.0444 for all 8481 data
  REM n/a parameters refined using n/a restraints
  REM Highest difference peak 0.22, deepest hole -0.20
  REM Mean Shift 0, Max Shift 0.000.
  
  REM +++ Tabular Listing of Refinement Information +++
  REM R1_all = 0.0444
  REM R1_gt = 0.0341
  REM wR_ref = 0.0776
  REM GOOF = 1.023
  REM Shift_max = 0.000
  REM Shift_mean = 0
  REM Reflections_all = 8481
  REM Reflections_gt = 2172
  REM Parameters = n/a
  REM Hole = -0.20
  REM Peak = 0.22
  REM Flack = 0.6(7)
  
  
;
_cod_data_source_file            c7nj03939e2.cif
_cod_data_source_block           dm16641
_cod_depositor_comments
'Adding full bibliography for 7056911--7056913.cif.'
_cod_original_cell_volume        838.24(19)
_cod_database_code               7056913
_shelx_space_group_comment
;
The symmetry employed for this shelxl refinement is uniquely defined
by the following loop, which should always be used as a source of
symmetry information in preference to the above space-group names.
They are only intended as comments.
;
_shelx_estimated_absorpt_t_max   0.982
_shelx_estimated_absorpt_t_min   0.973
_olex2_refinement_description
;
;
_shelx_shelxl_version_number     2014/7
_olex2_submission_special_instructions 'No special instructions were received'
loop_
_space_group_symop_operation_xyz
'x, y, z'
'-x, -y, z'
'-x+1/2, y+1/2, -z'
'x+1/2, -y+1/2, -z'
loop_
_atom_site_label
_atom_site_type_symbol
_atom_site_fract_x
_atom_site_fract_y
_atom_site_fract_z
_atom_site_U_iso_or_equiv
_atom_site_adp_type
_atom_site_occupancy
_atom_site_site_symmetry_order
_atom_site_calc_flag
O1 O 0.1863(2) 0.53972(9) 0.8606(2) 0.0286(4) Uani 1 1 d
O2 O 0.1924(2) 0.50210(9) 0.5365(3) 0.0294(3) Uani 1 1 d
O3 O 0.5074(2) 0.58935(9) 0.3794(2) 0.0261(3) Uani 1 1 d
O4 O 0.2691(3) 0.63941(11) 0.2560(2) 0.0365(4) Uani 1 1 d
O5 O 0.0047(2) 0.66337(10) 0.6525(3) 0.0333(4) Uani 1 1 d
O6 O 0.1890(2) 0.75442(9) 0.5566(2) 0.0295(4) Uani 1 1 d
N1 N 0.5552(2) 0.60074(11) 0.8292(3) 0.0204(3) Uani 1 1 d
N2 N 0.4477(2) 0.72585(10) 0.8513(3) 0.0218(4) Uani 1 1 d
N3 N 0.5855(2) 0.72371(11) 0.9783(3) 0.0244(4) Uani 1 1 d
N4 N 0.7816(2) 0.62117(10) 1.0697(3) 0.0211(4) Uani 1 1 d
N5 N 0.8906(2) 0.59811(12) 1.1602(3) 0.0293(4) Uani 1 1 d
N6 N 0.2190(2) 0.54839(10) 0.6772(3) 0.0201(3) Uani 1 1 d
N7 N 0.3646(2) 0.61895(10) 0.3947(3) 0.0209(3) Uani 1 1 d
N8 N 0.1483(2) 0.68791(10) 0.6092(3) 0.0223(4) Uani 1 1 d
C1 C 0.6415(3) 0.64946(12) 0.9559(3) 0.0194(4) Uani 1 1 d
C2 C 0.4352(3) 0.65244(12) 0.7685(3) 0.0166(4) Uani 1 1 d
C3 C 0.2979(2) 0.62882(11) 0.6187(3) 0.0168(3) Uani 1 1 d
loop_
_atom_site_aniso_label
_atom_site_aniso_U_11
_atom_site_aniso_U_22
_atom_site_aniso_U_33
_atom_site_aniso_U_23
_atom_site_aniso_U_13
_atom_site_aniso_U_12
O1 0.0269(8) 0.0313(8) 0.0276(8) 0.0053(7) 0.0056(7) -0.0040(7)
O2 0.0256(8) 0.0242(7) 0.0384(8) -0.0092(7) -0.0014(7) -0.0049(7)
O3 0.0230(7) 0.0309(8) 0.0244(7) -0.0015(7) 0.0047(6) 0.0027(7)
O4 0.0398(10) 0.0497(11) 0.0201(8) -0.0028(7) -0.0094(7) 0.0112(9)
O5 0.0164(7) 0.0330(9) 0.0505(11) -0.0076(8) -0.0034(8) 0.0022(7)
O6 0.0364(9) 0.0210(7) 0.0310(9) 0.0027(6) -0.0045(7) 0.0055(7)
N1 0.0194(8) 0.0206(8) 0.0213(8) -0.0006(7) -0.0032(7) 0.0008(7)
N2 0.0207(8) 0.0217(8) 0.0231(9) -0.0035(7) -0.0020(7) 0.0007(6)
N3 0.0230(9) 0.0241(9) 0.0260(9) -0.0033(7) -0.0039(7) 0.0003(7)
N4 0.0206(8) 0.0199(8) 0.0228(9) -0.0018(7) -0.0015(7) -0.0025(7)
N5 0.0258(9) 0.0276(9) 0.0346(10) -0.0007(8) -0.0080(9) -0.0008(8)
N6 0.0145(8) 0.0180(8) 0.0277(9) -0.0001(7) -0.0012(7) -0.0002(6)
N7 0.0231(8) 0.0212(8) 0.0184(8) -0.0015(7) -0.0018(7) -0.0009(7)
N8 0.0213(8) 0.0222(8) 0.0234(9) -0.0038(7) -0.0044(7) 0.0067(7)
C1 0.0161(9) 0.0246(9) 0.0176(9) 0.0008(7) -0.0010(8) 0.0002(7)
C2 0.0153(9) 0.0191(9) 0.0154(8) 0.0007(7) 0.0016(7) -0.0020(7)
C3 0.0147(8) 0.0176(8) 0.0182(9) -0.0004(7) -0.0002(7) 0.0009(7)
loop_
_atom_type_symbol
_atom_type_description
_atom_type_scat_dispersion_real
_atom_type_scat_dispersion_imag
_atom_type_scat_source
C C 0.0033 0.0016 'International Tables Vol C Tables 4.2.6.8 and 6.1.1.4'
N N 0.0061 0.0033 'International Tables Vol C Tables 4.2.6.8 and 6.1.1.4'
O O 0.0106 0.0060 'International Tables Vol C Tables 4.2.6.8 and 6.1.1.4'
loop_
_geom_angle_atom_site_label_1
_geom_angle_atom_site_label_2
_geom_angle_atom_site_label_3
_geom_angle
C2 N1 C1 97.07(17)
N3 N2 C2 105.79(17)
C1 N3 N2 102.49(17)
N5 N4 C1 179.1(2)
O1 N6 C3 115.28(16)
O2 N6 O1 127.74(18)
O2 N6 C3 116.95(16)
O3 N7 C3 115.07(16)
O4 N7 O3 127.69(19)
O4 N7 C3 117.22(17)
O5 N8 C3 117.29(17)
O6 N8 O5 127.97(18)
O6 N8 C3 114.74(16)
N1 C1 N4 119.88(19)
N3 C1 N1 118.85(19)
N3 C1 N4 121.18(19)
N1 C2 N2 115.79(18)
N1 C2 C3 120.72(18)
N2 C2 C3 123.49(18)
N6 C3 N7 105.47(14)
N8 C3 N6 106.66(14)
N8 C3 N7 106.61(15)
C2 C3 N6 111.13(15)
C2 C3 N7 113.46(16)
C2 C3 N8 112.97(16)
loop_
_geom_bond_atom_site_label_1
_geom_bond_atom_site_label_2
_geom_bond_distance
O1 N6 1.216(2)
O2 N6 1.213(2)
O3 N7 1.215(2)
O4 N7 1.208(2)
O5 N8 1.215(2)
O6 N8 1.213(2)
N1 C1 1.336(3)
N1 C2 1.331(3)
N2 N3 1.342(3)
N2 C2 1.352(3)
N3 C1 1.333(3)
N4 N5 1.095(2)
N4 C1 1.390(3)
N6 C3 1.534(2)
N7 C3 1.540(3)
N8 C3 1.527(2)
C2 C3 1.488(3)
loop_
_geom_torsion_atom_site_label_1
_geom_torsion_atom_site_label_2
_geom_torsion_atom_site_label_3
_geom_torsion_atom_site_label_4
_geom_torsion
O1 N6 C3 N7 167.67(16)
O1 N6 C3 N8 -79.2(2)
O1 N6 C3 C2 44.3(2)
O2 N6 C3 N7 -14.2(2)
O2 N6 C3 N8 98.90(19)
O2 N6 C3 C2 -137.57(18)
O3 N7 C3 N6 -83.68(19)
O3 N7 C3 N8 163.18(16)
O3 N7 C3 C2 38.2(2)
O4 N7 C3 N6 94.7(2)
O4 N7 C3 N8 -18.5(2)
O4 N7 C3 C2 -143.46(19)
O5 N8 C3 N6 2.0(2)
O5 N8 C3 N7 114.35(19)
O5 N8 C3 C2 -120.4(2)
O6 N8 C3 N6 -177.34(16)
O6 N8 C3 N7 -65.0(2)
O6 N8 C3 C2 60.3(2)
N1 C2 C3 N6 45.8(2)
N1 C2 C3 N7 -72.9(2)
N1 C2 C3 N8 165.62(18)
N2 N3 C1 N1 -0.8(3)
N2 N3 C1 N4 -177.40(18)
N2 C2 C3 N6 -134.25(19)
N2 C2 C3 N7 107.1(2)
N2 C2 C3 N8 -14.4(3)
N3 N2 C2 N1 -0.4(2)
N3 N2 C2 C3 179.63(18)
C1 N1 C2 N2 -0.1(2)
C1 N1 C2 C3 179.92(18)
C2 N1 C1 N3 0.5(2)
C2 N1 C1 N4 177.19(19)
C2 N2 N3 C1 0.6(2)
