#------------------------------------------------------------------------------
#$Date: 2022-08-06 14:58:03 +0300 (Sat, 06 Aug 2022) $
#$Revision: 277132 $
#$URL: file:///home/coder/svn-repositories/cod/cif/7/06/16/7061650.cif $
#------------------------------------------------------------------------------
#
# This file is available in the Crystallography Open Database (COD),
# http://www.crystallography.net/
#
# All data on this site have been placed in the public domain by the
# contributors.
#
data_7061650
loop_
_publ_author_name
'Zhang, Qi'
'He, Chunlin'
'Pang, Siping'
_publ_section_title
;
 Synthesis of heterocyclic (triazole, furoxan, furazan) fused pyridazine
 di-N-oxides via hypervalent iodine oxidation
;
_journal_issue                   30
_journal_name_full               'New Journal of Chemistry'
_journal_page_first              14324
_journal_page_last               14327
_journal_paper_doi               10.1039/D2NJ02908A
_journal_volume                  46
_journal_year                    2022
_chemical_formula_moiety         'C4 Cl2 N4 O4'
_chemical_formula_sum            'C4 Cl2 N4 O4'
_chemical_formula_weight         238.98
_space_group_crystal_system      monoclinic
_space_group_IT_number           14
_space_group_name_Hall           '-P 2yn'
_space_group_name_H-M_alt        'P 1 21/n 1'
_atom_sites_solution_primary     dual
_audit_creation_date             2021-11-18
_audit_creation_method
;
Olex2 1.2
(compiled 2018.05.29 svn.r3508 for OlexSys, GUI svn.r5506)
;
_audit_update_record
;
2022-05-30 deposited with the CCDC.	2022-07-11 downloaded from the CCDC.
;
_cell_angle_alpha                90
_cell_angle_beta                 100.853(3)
_cell_angle_gamma                90
_cell_formula_units_Z            4
_cell_length_a                   9.1210(7)
_cell_length_b                   5.9953(5)
_cell_length_c                   14.5570(12)
_cell_measurement_reflns_used    2908
_cell_measurement_temperature    150
_cell_measurement_theta_max      26.294
_cell_measurement_theta_min      2.849
_cell_volume                     781.78(11)
_computing_cell_refinement       'SAINT V8.40A (?, 2016)'
_computing_data_reduction        'SAINT V8.40A (?, 2016)'
_computing_molecular_graphics    'Olex2 (Dolomanov et al., 2009)'
_computing_publication_material  'Olex2 (Dolomanov et al., 2009)'
_computing_structure_refinement  'ShelXL (Sheldrick, 2015)'
_computing_structure_solution    'ShelXT (Sheldrick, 2015)'
_diffrn_ambient_temperature      150.0
_diffrn_measured_fraction_theta_full 1.000
_diffrn_measured_fraction_theta_max 0.999
_diffrn_measurement_device_type  'Bruker D8 VENTURE'
_diffrn_measurement_method       '\f and \w scans'
_diffrn_radiation_type           MoK\a
_diffrn_radiation_wavelength     0.71073
_diffrn_reflns_av_R_equivalents  0.0412
_diffrn_reflns_av_unetI/netI     0.0315
_diffrn_reflns_Laue_measured_fraction_full 1.000
_diffrn_reflns_Laue_measured_fraction_max 0.999
_diffrn_reflns_limit_h_max       9
_diffrn_reflns_limit_h_min       -11
_diffrn_reflns_limit_k_max       7
_diffrn_reflns_limit_k_min       -7
_diffrn_reflns_limit_l_max       18
_diffrn_reflns_limit_l_min       -18
_diffrn_reflns_number            8446
_diffrn_reflns_point_group_measured_fraction_full 1.000
_diffrn_reflns_point_group_measured_fraction_max 0.999
_diffrn_reflns_theta_full        25.242
_diffrn_reflns_theta_max         26.408
_diffrn_reflns_theta_min         2.445
_diffrn_standards_number         0
_exptl_absorpt_coefficient_mu    0.824
_exptl_absorpt_correction_T_max  0.7454
_exptl_absorpt_correction_T_min  0.6763
_exptl_absorpt_correction_type   multi-scan
_exptl_absorpt_process_details
'SADABS-2016/2 (Bruker,2016/2) was used for absorption correction. wR2(int) was 0.0903 before and 0.0534 after correction. The Ratio of minimum to maximum transmission is 0.9073. The \l/2 correction factor is Not present.'
_exptl_crystal_colour            colourless
_exptl_crystal_colour_primary    colourless
_exptl_crystal_density_diffrn    2.030
_exptl_crystal_description       block
_exptl_crystal_F_000             472
_exptl_crystal_size_max          0.13
_exptl_crystal_size_mid          0.06
_exptl_crystal_size_min          0.03
_refine_diff_density_max         0.280
_refine_diff_density_min         -0.277
_refine_diff_density_rms         0.065
_refine_ls_extinction_method     none
_refine_ls_goodness_of_fit_ref   1.076
_refine_ls_hydrogen_treatment    undef
_refine_ls_matrix_type           full
_refine_ls_number_parameters     127
_refine_ls_number_reflns         1604
_refine_ls_number_restraints     1
_refine_ls_restrained_S_all      1.107
_refine_ls_R_factor_all          0.0470
_refine_ls_R_factor_gt           0.0312
_refine_ls_shift/su_max          0.000
_refine_ls_shift/su_mean         0.000
_refine_ls_structure_factor_coef Fsqd
_refine_ls_weighting_details
'w=1/[\s^2^(Fo^2^)+(0.0201P)^2^+0.5487P] where P=(Fo^2^+2Fc^2^)/3'
_refine_ls_weighting_scheme      calc
_refine_ls_wR_factor_gt          0.0602
_refine_ls_wR_factor_ref         0.0681
_reflns_Friedel_coverage         0.000
_reflns_number_gt                1301
_reflns_number_total             1604
_reflns_threshold_expression     'I > 2\s(I)'
_iucr_refine_instructions_details
;
TITL mo_20211646_0m_a.res in P2(1)/n
    mo_20211646_0m.res
    created by SHELXL-2018/3 at 20:27:02 on 18-Nov-2021
REM Old TITL mo_20211646_0m in P2(1)/n
REM SHELXT solution in P2(1)/n
REM R1 0.203, Rweak 0.004, Alpha 0.012, Orientation as input
REM Formula found by SHELXT: C8 N O5
CELL 0.71073 9.121 5.9953 14.557 90 100.853 90
ZERR 4 0.0007 0.0005 0.0012 0 0.003 0
LATT 1
SYMM 0.5-X,0.5+Y,0.5-Z
SFAC C Cl N O
UNIT 16 8 16 16
DFIX 1.5 N2 N1

L.S. 4
PLAN  20
SIZE 0.13 0.06 0.03
TEMP -123.15
list 4
fmap 2
ACTA
REM <olex2.extras>
REM <HklSrc "%.\\mo_20211646_0m.hkl">
REM </olex2.extras>

WGHT    0.020100    0.548700
FVAR       0.71600
CL2   2    0.241911    0.686099    0.538132    11.00000    0.02845    0.03107 =
         0.02556    0.00811   -0.00146    0.00506
CL1   2    0.637859    0.318548    0.912449    11.00000    0.03210    0.03373 =
         0.02034    0.00435   -0.00338    0.00021
O3    4    0.528988    0.081435    0.604938    11.00000    0.02992    0.02134 =
         0.02607   -0.00555    0.00564    0.00426
O1    4    0.314186    0.893846    0.727875    11.00000    0.02486    0.01686 =
         0.03738   -0.00096    0.00853    0.00495
O2    4    0.464906    0.744832    0.877151    11.00000    0.03750    0.02853 =
         0.02288   -0.01096    0.00645   -0.00124
O4    4    0.663947   -0.021083    0.748971    11.00000    0.02251    0.02405 =
         0.03780    0.00547    0.00534    0.00766
N3    3    0.583409    0.121306    0.705199    11.00000    0.01937    0.01965 =
         0.02458    0.00036    0.00468    0.00021
N2    3    0.472723    0.615955    0.813568    11.00000    0.02042    0.02201 =
         0.01801   -0.00207    0.00312   -0.00206
N1    3    0.370658    0.715085    0.712406    11.00000    0.01770    0.01551 =
         0.02527    0.00177    0.00537    0.00059
N4    3    0.438774    0.256982    0.569544    11.00000    0.02733    0.02276 =
         0.02372   -0.00198    0.00337    0.00159
C2    1    0.524105    0.313542    0.724225    11.00000    0.01418    0.01623 =
         0.02169    0.00042    0.00501   -0.00107
C3    1    0.437065    0.392061    0.640145    11.00000    0.01644    0.01834 =
         0.01874   -0.00223    0.00440   -0.00247
C4    1    0.357144    0.597389    0.636027    11.00000    0.01786    0.01834 =
         0.01882    0.00286    0.00152   -0.00159
C1    1    0.539780    0.422913    0.811787    11.00000    0.01710    0.02201 =
         0.01995    0.00178    0.00275   -0.00278
HKLF 4




REM  mo_20211646_0m_a.res in P2(1)/n
REM wR2 = 0.0681, GooF = S = 1.076, Restrained GooF = 1.107 for all data
REM R1 = 0.0312 for 1301 Fo > 4sig(Fo) and 0.0470 for all 1604 data
REM 127 parameters refined using 1 restraints

END  
     
WGHT      0.0201      0.5514 

REM Highest difference peak  0.280,  deepest hole -0.277,  1-sigma level  0.065
Q1    1   0.4255  0.4968  0.6357  11.00000  0.05    0.28
Q2    1   0.4748  0.3878  0.6889  11.00000  0.05    0.26
Q3    1   0.4896  0.3649  0.6185  11.00000  0.05    0.22
Q4    1   0.5403  0.3797  0.7638  11.00000  0.05    0.21
Q5    1   0.3783  0.2070  0.5025  11.00000  0.05    0.21
Q6    1   0.6249 -0.0706  0.7983  11.00000  0.05    0.21
Q7    1   0.4617  0.2090  0.9048  11.00000  0.05    0.20
Q8    1   0.5716  0.1037  0.6606  11.00000  0.05    0.20
Q9    1   0.6148 -0.1479  0.5823  11.00000  0.05    0.19
Q10   1   0.2542  0.9751  0.6959  11.00000  0.05    0.19
Q11   1   0.7127  0.3338  0.6094  11.00000  0.05    0.19
Q12   1   0.2028  0.8176  0.7782  11.00000  0.05    0.19
Q13   1   0.7435 -0.0074  0.7575  11.00000  0.05    0.19
Q14   1   0.4940  0.1846  0.4616  11.00000  0.05    0.18
Q15   1   0.6818  0.6139  0.8224  11.00000  0.05    0.18
Q16   1   0.5674  0.5415  0.7995  11.00000  0.05    0.18
Q17   1   0.6286  0.4607  0.8357  11.00000  0.05    0.18
Q18   1   0.5369  0.7688  0.6914  11.00000  0.05    0.18
Q19   1   0.3596  1.0741  0.7988  11.00000  0.05    0.18
Q20   1   0.3707  0.6383  0.5974  11.00000  0.05    0.18

  REM The information below was added by Olex2.
  REM
  REM R1 = 0.0312 for 1301 Fo > 4sig(Fo) and 0.0470 for all 8878 data
  REM n/a parameters refined using n/a restraints
  REM Highest difference peak 0.28, deepest hole -0.28
  REM Mean Shift 0, Max Shift 0.000.

  REM +++ Tabular Listing of Refinement Information +++
  REM R1_all = 0.0470
  REM R1_gt = 0.0312
  REM wR_ref = 0.0681
  REM GOOF = 1.076
  REM Shift_max = 0.000
  REM Shift_mean = 0
  REM Reflections_all = 8878
  REM Reflections_gt = 1301
  REM Parameters = n/a
  REM Hole = -0.28
  REM Peak = 0.28
  REM Flack = n/a

  
;
_cod_data_source_file            d2nj02908a2.cif
_cod_data_source_block           mo_20211646_0m
_cod_depositor_comments
'Adding full bibliography for 7061650--7061656.cif.'
_cod_database_code               7061650
_shelx_shelxl_version_number     2018/3
_shelx_space_group_comment
;
The symmetry employed for this shelxl refinement is uniquely defined
by the following loop, which should always be used as a source of
symmetry information in preference to the above space-group names.
They are only intended as comments.
;
_shelx_estimated_absorpt_t_max   0.976
_shelx_estimated_absorpt_t_min   0.900
_olex2_refinement_description
;
1. Restrained distances
 N2-N1
 1.5 with sigma of 0.02
;
_olex2_submission_special_instructions 'No special instructions were received'
loop_
_space_group_symop_operation_xyz
'x, y, z'
'-x+1/2, y+1/2, -z+1/2'
'-x, -y, -z'
'x-1/2, -y-1/2, z-1/2'
loop_
_atom_site_label
_atom_site_type_symbol
_atom_site_fract_x
_atom_site_fract_y
_atom_site_fract_z
_atom_site_U_iso_or_equiv
_atom_site_adp_type
_atom_site_occupancy
_atom_site_site_symmetry_order
_atom_site_calc_flag
_atom_site_refinement_flags_posn
_atom_site_refinement_flags_adp
_atom_site_refinement_flags_occupancy
_atom_site_disorder_assembly
_atom_site_disorder_group
Cl2 Cl 0.24191(6) 0.68610(10) 0.53813(4) 0.02921(16) Uani 1 1 d . . . . .
Cl1 Cl 0.63786(6) 0.31855(10) 0.91245(4) 0.02981(16) Uani 1 1 d . . . . .
O3 O 0.52899(16) 0.0814(2) 0.60494(10) 0.0257(4) Uani 1 1 d . . . . .
O1 O 0.31419(16) 0.8938(2) 0.72787(11) 0.0260(4) Uani 1 1 d . . . . .
O2 O 0.46491(18) 0.7448(3) 0.87715(11) 0.0295(4) Uani 1 1 d . . . . .
O4 O 0.66395(16) -0.0211(3) 0.74897(11) 0.0282(4) Uani 1 1 d . . . . .
N3 N 0.58341(19) 0.1213(3) 0.70520(13) 0.0211(4) Uani 1 1 d . . . . .
N2 N 0.47272(19) 0.6160(3) 0.81357(12) 0.0202(4) Uani 1 1 d D . . . .
N1 N 0.37066(18) 0.7151(3) 0.71241(12) 0.0193(4) Uani 1 1 d D . . . .
N4 N 0.4388(2) 0.2570(3) 0.56954(13) 0.0248(4) Uani 1 1 d . . . . .
C2 C 0.5241(2) 0.3135(3) 0.72422(14) 0.0172(4) Uani 1 1 d . . . . .
C3 C 0.4371(2) 0.3921(3) 0.64014(14) 0.0177(4) Uani 1 1 d . . . . .
C4 C 0.3571(2) 0.5974(3) 0.63603(14) 0.0186(4) Uani 1 1 d . . . . .
C1 C 0.5398(2) 0.4229(3) 0.81179(15) 0.0198(5) Uani 1 1 d . . . . .
loop_
_atom_site_aniso_label
_atom_site_aniso_U_11
_atom_site_aniso_U_22
_atom_site_aniso_U_33
_atom_site_aniso_U_23
_atom_site_aniso_U_13
_atom_site_aniso_U_12
Cl2 0.0285(3) 0.0311(3) 0.0256(3) 0.0081(2) -0.0015(2) 0.0051(2)
Cl1 0.0321(3) 0.0337(3) 0.0203(3) 0.0044(2) -0.0034(2) 0.0002(2)
O3 0.0299(8) 0.0213(8) 0.0261(9) -0.0056(7) 0.0056(7) 0.0043(7)
O1 0.0249(8) 0.0169(7) 0.0374(9) -0.0010(7) 0.0085(7) 0.0049(6)
O2 0.0375(9) 0.0285(9) 0.0229(9) -0.0110(7) 0.0065(7) -0.0012(7)
O4 0.0225(8) 0.0240(8) 0.0378(10) 0.0055(7) 0.0053(7) 0.0077(7)
N3 0.0194(9) 0.0196(9) 0.0246(10) 0.0004(8) 0.0047(7) 0.0002(7)
N2 0.0204(9) 0.0220(9) 0.0180(9) -0.0021(8) 0.0031(7) -0.0021(7)
N1 0.0177(9) 0.0155(9) 0.0253(10) 0.0018(8) 0.0054(7) 0.0006(7)
N4 0.0273(10) 0.0228(9) 0.0237(10) -0.0020(8) 0.0034(8) 0.0016(8)
C2 0.0142(9) 0.0162(10) 0.0217(11) 0.0004(9) 0.0050(8) -0.0011(8)
C3 0.0164(10) 0.0183(10) 0.0187(11) -0.0022(9) 0.0044(8) -0.0025(8)
C4 0.0179(10) 0.0183(10) 0.0188(11) 0.0029(9) 0.0015(8) -0.0016(8)
C1 0.0171(10) 0.0220(11) 0.0200(11) 0.0018(9) 0.0028(8) -0.0028(8)
loop_
_atom_type_symbol
_atom_type_description
_atom_type_scat_dispersion_real
_atom_type_scat_dispersion_imag
_atom_type_scat_source
C C 0.0033 0.0016 'International Tables Vol C Tables 4.2.6.8 and 6.1.1.4'
Cl Cl 0.1484 0.1585 'International Tables Vol C Tables 4.2.6.8 and 6.1.1.4'
N N 0.0061 0.0033 'International Tables Vol C Tables 4.2.6.8 and 6.1.1.4'
O O 0.0106 0.0060 'International Tables Vol C Tables 4.2.6.8 and 6.1.1.4'
loop_
_geom_angle_atom_site_label_1
_geom_angle_atom_site_label_2
_geom_angle_atom_site_label_3
_geom_angle
_geom_angle_site_symmetry_1
_geom_angle_site_symmetry_3
_geom_angle_publ_flag
N4 O3 N3 108.30(14) . . ?
O4 N3 O3 117.44(16) . . ?
O4 N3 C2 136.62(19) . . ?
C2 N3 O3 105.92(15) . . ?
O2 N2 N1 109.67(15) . . ?
O2 N2 C1 131.99(19) . . ?
C1 N2 N1 118.31(16) . . ?
O1 N1 N2 109.11(15) . . ?
O1 N1 C4 130.81(18) . . ?
C4 N1 N2 119.99(16) . . ?
C3 N4 O3 105.89(17) . . ?
N3 C2 C3 107.14(18) . . ?
N3 C2 C1 127.95(19) . . ?
C3 C2 C1 124.90(18) . . ?
N4 C3 C2 112.76(18) . . ?
N4 C3 C4 125.57(19) . . ?
C2 C3 C4 121.67(18) . . ?
N1 C4 Cl2 119.55(16) . . ?
N1 C4 C3 117.78(18) . . ?
C3 C4 Cl2 122.62(16) . . ?
N2 C1 Cl1 118.89(16) . . ?
N2 C1 C2 117.25(18) . . ?
C2 C1 Cl1 123.86(16) . . ?
loop_
_geom_bond_atom_site_label_1
_geom_bond_atom_site_label_2
_geom_bond_distance
_geom_bond_site_symmetry_2
_geom_bond_publ_flag
Cl2 C4 1.689(2) . ?
Cl1 C1 1.687(2) . ?
O3 N3 1.470(2) . ?
O3 N4 1.375(2) . ?
O1 N1 1.228(2) . ?
O2 N2 1.218(2) . ?
O4 N3 1.224(2) . ?
N3 C2 1.324(3) . ?
N2 N1 1.695(2) . ?
N2 C1 1.312(3) . ?
N1 C4 1.303(3) . ?
N4 C3 1.311(3) . ?
C2 C3 1.409(3) . ?
C2 C1 1.417(3) . ?
C3 C4 1.426(3) . ?
