#------------------------------------------------------------------------------
#$Date: 2022-03-05 00:17:51 +0200 (Sat, 05 Mar 2022) $
#$Revision: 273382 $
#$URL: file:///home/coder/svn-repositories/cod/cif/7/06/12/7061220.cif $
#------------------------------------------------------------------------------
#
# This file is available in the Crystallography Open Database (COD),
# http://www.crystallography.net/
#
# All data on this site have been placed in the public domain by the
# contributors.
#
data_7061220
loop_
_publ_author_name
'Costa, Let\'icia D.'
'Guieu, Samuel'
'Faustino, Maria do Amparo F.'
'Tom\'e, Augusto C.'
_publ_section_title
;
 Straightforward synthesis of thiazolo[5,4-c]isoquinolines from
 dithiooxamide and 2-halobenzaldehydes
;
_journal_issue                   8
_journal_name_full               'New Journal of Chemistry'
_journal_page_first              3602
_journal_page_last               3615
_journal_paper_doi               10.1039/D1NJ05536D
_journal_volume                  46
_journal_year                    2022
_chemical_formula_moiety         'C16 F10 N2 S2'
_chemical_formula_sum            'C16 F10 N2 S2'
_chemical_formula_weight         474.30
_chemical_name_systematic        2,5-bis(perfluorophenyl)thiazolo[5,4-d]thiazole
_space_group_crystal_system      monoclinic
_space_group_IT_number           14
_space_group_name_Hall           '-P 2yn'
_space_group_name_H-M_alt        'P 1 21/n 1'
_atom_sites_solution_primary     direct
_atom_sites_solution_secondary   difmap
_audit_creation_method           SHELXL-2018/3
_audit_update_record
;
2021-07-29 deposited with the CCDC.	2022-01-20 downloaded from the CCDC.
;
_cell_angle_alpha                90
_cell_angle_beta                 101.031(5)
_cell_angle_gamma                90
_cell_formula_units_Z            2
_cell_length_a                   4.3379(7)
_cell_length_b                   16.178(2)
_cell_length_c                   10.9464(16)
_cell_measurement_reflns_used    2469
_cell_measurement_temperature    150(2)
_cell_measurement_theta_max      29.64
_cell_measurement_theta_min      2.28
_cell_volume                     754.01(19)
_computing_cell_refinement       'Bruker SAINT'
_computing_data_collection       'Bruker APEX2'
_computing_data_reduction        'Bruker SAINT'
_computing_molecular_graphics    'Bruker SHELXTL'
_computing_publication_material  'Bruker SHELXTL'
_computing_structure_refinement  'SHELXL-2018/3 (Sheldrick, 2018)'
_computing_structure_solution    'SHELXS-97 (Sheldrick 2008)'
_diffrn_ambient_temperature      150(2)
_diffrn_measured_fraction_theta_full 1.000
_diffrn_measured_fraction_theta_max 1.000
_diffrn_measurement_device_type  'Bruker APEX-II CCD'
_diffrn_measurement_method       '\f and \w scans'
_diffrn_radiation_type           MoK\a
_diffrn_radiation_wavelength     0.71073
_diffrn_reflns_av_R_equivalents  0.0628
_diffrn_reflns_av_unetI/netI     0.0490
_diffrn_reflns_Laue_measured_fraction_full 1.000
_diffrn_reflns_Laue_measured_fraction_max 1.000
_diffrn_reflns_limit_h_max       6
_diffrn_reflns_limit_h_min       -5
_diffrn_reflns_limit_k_max       23
_diffrn_reflns_limit_k_min       -23
_diffrn_reflns_limit_l_max       12
_diffrn_reflns_limit_l_min       -15
_diffrn_reflns_number            11873
_diffrn_reflns_point_group_measured_fraction_full 1.000
_diffrn_reflns_point_group_measured_fraction_max 1.000
_diffrn_reflns_theta_full        25.242
_diffrn_reflns_theta_max         30.542
_diffrn_reflns_theta_min         2.276
_exptl_absorpt_coefficient_mu    0.478
_exptl_absorpt_correction_type   none
_exptl_crystal_colour            red
_exptl_crystal_density_diffrn    2.089
_exptl_crystal_description       needle
_exptl_crystal_F_000             464
_exptl_crystal_recrystallization_method 'Re-crystallisation from solvent'
_exptl_crystal_size_max          0.700
_exptl_crystal_size_mid          0.120
_exptl_crystal_size_min          0.100
_exptl_transmission_factor_max   0.7461
_exptl_transmission_factor_min   0.5620
_refine_diff_density_max         0.368
_refine_diff_density_min         -0.371
_refine_diff_density_rms         0.079
_refine_ls_extinction_method     none
_refine_ls_goodness_of_fit_ref   1.039
_refine_ls_hydrogen_treatment    undef
_refine_ls_matrix_type           full
_refine_ls_number_parameters     136
_refine_ls_number_reflns         2298
_refine_ls_number_restraints     0
_refine_ls_restrained_S_all      1.039
_refine_ls_R_factor_all          0.0500
_refine_ls_R_factor_gt           0.0381
_refine_ls_shift/su_max          0.000
_refine_ls_shift/su_mean         0.000
_refine_ls_structure_factor_coef Fsqd
_refine_ls_weighting_details
'w=1/[\s^2^(Fo^2^)+(0.0391P)^2^+0.2253P] where P=(Fo^2^+2Fc^2^)/3'
_refine_ls_weighting_scheme      calc
_refine_ls_wR_factor_gt          0.0905
_refine_ls_wR_factor_ref         0.0980
_reflns_Friedel_coverage         0.000
_reflns_number_gt                1834
_reflns_number_total             2298
_reflns_threshold_expression     'I > 2\s(I)'
_cod_data_source_file            d1nj05536d2.cif
_cod_data_source_block           shelx_CCDC1
_cod_depositor_comments
'Adding full bibliography for 7061219--7061230.cif.'
_cod_original_cell_volume        754.0(2)
_cod_original_sg_symbol_H-M      'P 21/n'
_cod_database_code               7061220
_shelx_shelxl_version_number     2018/3
_shelx_space_group_comment
;
The symmetry employed for this shelxl refinement is uniquely defined
by the following loop, which should always be used as a source of
symmetry information in preference to the above space-group names.
They are only intended as comments.
;
_shelx_estimated_absorpt_t_min   0.731
_shelx_estimated_absorpt_t_max   0.954
_shelx_res_file
;
TITL LDCPFluortztz in P2(1)/n
    shelx.res
    created by SHELXL-2018/3 at 17:06:00 on 05-Dec-2019
CELL  0.71073   4.3379  16.1776  10.9464   90.000  101.031   90.000
ZERR     2.00   0.0007   0.0024   0.0016    0.000    0.005    0.000
LATT   1
SYMM  1/2 - X, 1/2 + Y, 1/2 - Z
SFAC  C        2.31000 20.84392  1.02000 10.20751   1.58860   0.56870 =
         0.86500  51.65125   0.21560   0.003   0.002    11.500   0.770  12.011
SFAC  N       12.21261  0.00570  3.13220  9.89331   2.01250  28.99754 =
         1.16630   0.58260 -11.52901   0.006   0.003    19.600   0.700  14.007
SFAC  F        3.53920 10.28251  2.64120  4.29440   1.51700   0.26150 =
         1.02430  26.14763   0.27760   0.017   0.010    51.500   0.640  18.998
SFAC  S        6.90531  1.46790  5.20341 22.21512   1.43790   0.25360 =
         1.58630  56.17207   0.86690   0.125   0.123   532.000   1.040  32.066
UNIT  32 4 20 4
MERG   2
SIZE     0.100   0.120   0.700
ACTA
L.S.  99
TEMP  -123.00
WGHT    0.039100    0.225300
FVAR       0.13131
MOLE    1
S01   4    0.171759    0.954783    0.355067    11.00000    0.02577    0.01833 =
         0.01930    0.00213   -0.00426   -0.00178
F06   3   -0.049755    0.542824    0.364932    11.00000    0.03528    0.01932 =
         0.03227   -0.00480    0.00402   -0.00811
F08   3    0.636737    0.735176    0.589762    11.00000    0.02082    0.02035 =
         0.02018    0.00040   -0.00210   -0.00143
F07   3    0.459784    0.580963    0.545013    11.00000    0.03349    0.01712 =
         0.02870    0.00259   -0.00026    0.00247
F04   3   -0.214140    0.823837    0.275686    11.00000    0.02061    0.02458 =
         0.02333    0.00113   -0.00049    0.00313
F05   3   -0.383624    0.666989    0.233434    11.00000    0.02019    0.03247 =
         0.02392   -0.00601   -0.00157   -0.00638
C02   1    0.317803    0.874566    0.458529    11.00000    0.01597    0.01700 =
         0.01686    0.00127    0.00472    0.00116
C08   1    0.379873    0.722321    0.502115    11.00000    0.01525    0.01898 =
         0.01578   -0.00038    0.00360   -0.00075
N01   2    0.530864    0.896095    0.555796    11.00000    0.02231    0.01681 =
         0.01946    0.00088   -0.00002   -0.00098
C05   1   -0.131576    0.684379    0.320745    11.00000    0.01668    0.02712 =
         0.01526   -0.00476    0.00498   -0.00517
C03   1    0.218031    0.788138    0.435283    11.00000    0.01581    0.01800 =
         0.01559   -0.00050    0.00514    0.00034
C01   1    0.416779    1.021456    0.450128    11.00000    0.01769    0.01823 =
         0.01603    0.00031    0.00125   -0.00039
C06   1    0.035457    0.621402    0.388457    11.00000    0.02313    0.01933 =
         0.02061   -0.00531    0.00891   -0.00593
C07   1    0.291250    0.640876    0.479392    11.00000    0.02256    0.01714 =
         0.01894    0.00092    0.00735    0.00149
C04   1   -0.040877    0.765446    0.344714    11.00000    0.01557    0.02211 =
         0.01668    0.00138    0.00539    0.00154
HKLF    4




REM  LDCPFluortztz in P2(1)/n
REM wR2 = 0.0980, GooF = S = 1.039, Restrained GooF = 1.039 for all data
REM R1 = 0.0381 for 1834 Fo > 4sig(Fo) and 0.0500 for all 2298 data
REM 136 parameters refined using 0 restraints

END

WGHT      0.0388      0.2255

REM Highest difference peak  0.368,  deepest hole -0.371,  1-sigma level  0.079
Q1    1   0.5000  1.0000  0.5000  10.50000  0.05    0.37
Q2    1   0.3531  0.9885  0.3956  11.00000  0.05    0.36
Q3    1   0.3880  0.8823  0.5218  11.00000  0.05    0.35
Q4    1   0.3302  0.9192  0.3918  11.00000  0.05    0.34
Q5    1  -0.0813  0.7191  0.3449  11.00000  0.05    0.32
Q6    1   0.1194  0.7722  0.3805  11.00000  0.05    0.32
Q7    1   0.2868  0.7592  0.4764  11.00000  0.05    0.32
Q8    1   0.0605  0.7824  0.4051  11.00000  0.05    0.31
Q9    1   0.2870  0.8321  0.4470  11.00000  0.05    0.29
Q10   1   0.3639  0.6815  0.4908  11.00000  0.05    0.29
Q11   1   0.2913  0.6822  0.5008  11.00000  0.05    0.28
Q12   1  -0.0699  0.6585  0.3797  11.00000  0.05    0.27
Q13   1   0.1934  0.6303  0.4186  11.00000  0.05    0.26
Q14   1   0.0450  0.9616  0.2934  11.00000  0.05    0.25
Q15   1   0.5001  0.9598  0.3188  11.00000  0.05    0.24
Q16   1  -0.4994  0.6824  0.3655  11.00000  0.05    0.24
Q17   1   0.3502  0.6218  0.5033  11.00000  0.05    0.24
Q18   1  -0.2139  0.6782  0.2793  11.00000  0.05    0.23
Q19   1   0.5428  0.8658  0.5988  11.00000  0.05    0.23
Q20   1  -0.1240  1.0217  0.4316  11.00000  0.05    0.22
;
_shelx_res_checksum              13791
loop_
_space_group_symop_operation_xyz
'x, y, z'
'-x+1/2, y+1/2, -z+1/2'
'-x, -y, -z'
'x-1/2, -y-1/2, z-1/2'
loop_
_atom_site_label
_atom_site_type_symbol
_atom_site_fract_x
_atom_site_fract_y
_atom_site_fract_z
_atom_site_U_iso_or_equiv
_atom_site_adp_type
_atom_site_occupancy
_atom_site_site_symmetry_order
_atom_site_calc_flag
_atom_site_refinement_flags_posn
_atom_site_refinement_flags_adp
_atom_site_refinement_flags_occupancy
_atom_site_disorder_assembly
_atom_site_disorder_group
S01 S 0.17176(11) 0.95478(2) 0.35507(4) 0.02227(13) Uani 1 1 d . . . . .
F06 F -0.0498(3) 0.54282(6) 0.36493(10) 0.0293(3) Uani 1 1 d . . . . .
F08 F 0.6367(2) 0.73518(6) 0.58976(9) 0.0212(2) Uani 1 1 d . . . . .
F07 F 0.4598(3) 0.58096(6) 0.54501(9) 0.0273(2) Uani 1 1 d . . . . .
F04 F -0.2141(2) 0.82384(6) 0.27569(9) 0.0235(2) Uani 1 1 d . . . . .
F05 F -0.3836(2) 0.66699(6) 0.23343(9) 0.0263(2) Uani 1 1 d . . . . .
C02 C 0.3178(4) 0.87457(9) 0.45853(14) 0.0164(3) Uani 1 1 d . . . . .
C08 C 0.3799(4) 0.72232(10) 0.50212(14) 0.0166(3) Uani 1 1 d . . . . .
N01 N 0.5309(3) 0.89609(8) 0.55580(12) 0.0201(3) Uani 1 1 d . . . . .
C05 C -0.1316(4) 0.68438(10) 0.32074(14) 0.0194(3) Uani 1 1 d . . . . .
C03 C 0.2180(4) 0.78814(9) 0.43528(14) 0.0162(3) Uani 1 1 d . . . . .
C01 C 0.4168(4) 1.02146(10) 0.45013(14) 0.0176(3) Uani 1 1 d . . . . .
C06 C 0.0355(4) 0.62140(10) 0.38846(15) 0.0204(3) Uani 1 1 d . . . . .
C07 C 0.2912(4) 0.64088(9) 0.47939(15) 0.0191(3) Uani 1 1 d . . . . .
C04 C -0.0409(4) 0.76545(10) 0.34471(14) 0.0178(3) Uani 1 1 d . . . . .
loop_
_atom_site_aniso_label
_atom_site_aniso_U_11
_atom_site_aniso_U_22
_atom_site_aniso_U_33
_atom_site_aniso_U_23
_atom_site_aniso_U_13
_atom_site_aniso_U_12
S01 0.0258(2) 0.0183(2) 0.0193(2) 0.00213(14) -0.00426(16) -0.00178(16)
F06 0.0353(7) 0.0193(5) 0.0323(6) -0.0048(4) 0.0040(5) -0.0081(4)
F08 0.0208(5) 0.0204(5) 0.0202(5) 0.0004(4) -0.0021(4) -0.0014(4)
F07 0.0335(6) 0.0171(5) 0.0287(6) 0.0026(4) -0.0003(5) 0.0025(4)
F04 0.0206(5) 0.0246(5) 0.0233(5) 0.0011(4) -0.0005(4) 0.0031(4)
F05 0.0202(5) 0.0325(5) 0.0239(5) -0.0060(4) -0.0016(4) -0.0064(4)
C02 0.0160(8) 0.0170(7) 0.0169(7) 0.0013(5) 0.0047(6) 0.0012(6)
C08 0.0152(7) 0.0190(7) 0.0158(7) -0.0004(5) 0.0036(6) -0.0007(6)
N01 0.0223(7) 0.0168(6) 0.0195(7) 0.0009(5) 0.0000(5) -0.0010(5)
C05 0.0167(8) 0.0271(8) 0.0153(7) -0.0048(6) 0.0050(6) -0.0052(6)
C03 0.0158(7) 0.0180(7) 0.0156(7) -0.0005(5) 0.0051(6) 0.0003(6)
C01 0.0177(8) 0.0182(7) 0.0160(7) 0.0003(6) 0.0012(6) -0.0004(6)
C06 0.0231(8) 0.0193(7) 0.0206(8) -0.0053(6) 0.0089(7) -0.0059(6)
C07 0.0226(8) 0.0171(7) 0.0189(8) 0.0009(6) 0.0073(6) 0.0015(6)
C04 0.0156(8) 0.0221(7) 0.0167(8) 0.0014(6) 0.0054(6) 0.0015(6)
loop_
_atom_type_symbol
_atom_type_description
_atom_type_scat_dispersion_real
_atom_type_scat_dispersion_imag
_atom_type_scat_source
C C 0.0030 0.0020 'International Tables Vol C Tables 4.2.6.8 and 6.1.1.4'
N N 0.0060 0.0030 'International Tables Vol C Tables 4.2.6.8 and 6.1.1.4'
F F 0.0170 0.0100 'International Tables Vol C Tables 4.2.6.8 and 6.1.1.4'
S S 0.1250 0.1230 'International Tables Vol C Tables 4.2.6.8 and 6.1.1.4'
loop_
_geom_angle_atom_site_label_1
_geom_angle_atom_site_label_2
_geom_angle_atom_site_label_3
_geom_angle
_geom_angle_site_symmetry_1
_geom_angle_site_symmetry_3
_geom_angle_publ_flag
C01 S01 C02 88.19(8) . . ?
N01 C02 C03 121.95(14) . . ?
N01 C02 S01 115.87(12) . . ?
C03 C02 S01 122.14(12) . . ?
F08 C08 C07 116.19(14) . . ?
F08 C08 C03 121.36(14) . . ?
C07 C08 C03 122.41(15) . . ?
C02 N01 C01 108.64(13) . 3_676 ?
F05 C05 C04 120.02(15) . . ?
F05 C05 C06 120.11(15) . . ?
C04 C05 C06 119.86(15) . . ?
C04 C03 C08 115.15(14) . . ?
C04 C03 C02 122.83(14) . . ?
C08 C03 C02 122.02(15) . . ?
N01 C01 C01 117.82(18) 3_676 3_676 ?
N01 C01 S01 132.69(12) 3_676 . ?
C01 C01 S01 109.49(16) 3_676 . ?
F06 C06 C07 120.80(15) . . ?
F06 C06 C05 120.10(15) . . ?
C07 C06 C05 119.10(15) . . ?
F07 C07 C06 120.27(14) . . ?
F07 C07 C08 119.32(15) . . ?
C06 C07 C08 120.39(15) . . ?
F04 C04 C05 116.88(15) . . ?
F04 C04 C03 120.04(14) . . ?
C05 C04 C03 123.08(15) . . ?
loop_
_geom_bond_atom_site_label_1
_geom_bond_atom_site_label_2
_geom_bond_distance
_geom_bond_site_symmetry_2
_geom_bond_publ_flag
S01 C01 1.7183(16) . ?
S01 C02 1.7588(15) . ?
F06 C06 1.3351(18) . ?
F08 C08 1.3402(18) . ?
F07 C07 1.3375(18) . ?
F04 C04 1.3457(18) . ?
F05 C05 1.3372(19) . ?
C02 N01 1.316(2) . ?
C02 C03 1.471(2) . ?
C08 C07 1.382(2) . ?
C08 C03 1.402(2) . ?
N01 C01 1.357(2) 3_676 ?
C05 C04 1.380(2) . ?
C05 C06 1.381(2) . ?
C03 C04 1.397(2) . ?
C01 C01 1.376(3) 3_676 ?
C06 C07 1.378(2) . ?
