#------------------------------------------------------------------------------
#$Date: 2016-03-26 14:27:39 +0200 (Sat, 26 Mar 2016) $
#$Revision: 180263 $
#$URL: svn://www.crystallography.net/cod/cif/7/11/49/7114976.cif $
#------------------------------------------------------------------------------
#
# This file is available in the Crystallography Open Database (COD),
# http://www.crystallography.net/
#
# All data on this site have been placed in the public domain by the
# contributors.
#
data_7114976
loop_
_publ_author_name
'Bond, Andrew D.'
'Griffiths, Joanna'
'Rawson, Jeremy M.'
'Hulliger, J\"urg'
_publ_section_title
;
 Inducing structural polarity using fluorinated organics: X-ray crystal
 structures of p-XC6F4CN (X = Cl, Br, I)Electronic supplementary data
 (ESI) available: the crystal structure of p-BrC6F4CN in .pdb format. See
 http://www.rsc.org/suppdata/cc/b1/b107665p/
;
_journal_issue                   23
_journal_name_full               'Chemical Communications'
_journal_page_first              2488
_journal_paper_doi               10.1039/b107665p
_journal_year                    2001
_chemical_formula_moiety         'C7 F4 I N'
_chemical_formula_sum            'C7 F4 I N'
_chemical_formula_weight         300.98
_chemical_name_systematic
; 
4-iodo-2,3,5,6-fluoro-benzonitrile 
;
_space_group_IT_number           33
_symmetry_cell_setting           orthorhombic
_symmetry_space_group_name_Hall  'P 2c -2n'
_symmetry_space_group_name_H-M   'P n a 21'
_atom_sites_solution_hydrogens   geom
_atom_sites_solution_primary     direct
_atom_sites_solution_secondary   difmap
_audit_creation_method           SHELXL-97
_cell_angle_alpha                90.00
_cell_angle_beta                 90.00
_cell_angle_gamma                90.00
_cell_formula_units_Z            4
_cell_length_a                   15.252(2)
_cell_length_b                   8.5160(6)
_cell_length_c                   6.1817(7)
_cell_measurement_reflns_used    12567
_cell_measurement_temperature    180(2)
_cell_measurement_theta_max      27.48
_cell_measurement_theta_min      1.00
_cell_volume                     802.92(15)
_computing_cell_refinement       'HKL Scalepack (Otwinowski & Minor 1997)'
_computing_data_collection       'Collect (Nonius B.V. 1998)'
_computing_data_reduction
;
HKL Denzo and Scalepack (Otwinowski & Minor 1997)
;
_computing_publication_material  'SHELXL-97 (Sheldrick 1997)'
_computing_structure_refinement  'SHELXL-97 (Sheldrick 1997)'
_computing_structure_solution    'SIR-92 (Altomare et al. 1994)'
_diffrn_ambient_temperature      180(2)
_diffrn_measured_fraction_theta_full 0.996
_diffrn_measured_fraction_theta_max 0.996
_diffrn_measurement_device_type  'Nonius Kappa CCD'
_diffrn_measurement_method       'Thin slice \w and \f scans'
_diffrn_radiation_monochromator  graphite
_diffrn_radiation_source         'fine-focus sealed tube'
_diffrn_radiation_type           MoK\a
_diffrn_radiation_wavelength     0.71073
_diffrn_reflns_av_R_equivalents  0.0499
_diffrn_reflns_av_sigmaI/netI    0.0640
_diffrn_reflns_limit_h_max       19
_diffrn_reflns_limit_h_min       -19
_diffrn_reflns_limit_k_max       11
_diffrn_reflns_limit_k_min       -7
_diffrn_reflns_limit_l_max       7
_diffrn_reflns_limit_l_min       -8
_diffrn_reflns_number            4924
_diffrn_reflns_theta_full        27.46
_diffrn_reflns_theta_max         27.46
_diffrn_reflns_theta_min         3.59
_diffrn_standards_number         0
_exptl_absorpt_coefficient_mu    4.003
_exptl_absorpt_correction_T_max  0.932
_exptl_absorpt_correction_T_min  0.793
_exptl_absorpt_correction_type   multi-scan
_exptl_absorpt_process_details   'Sortav Blessing (1995)'
_exptl_crystal_colour            colourless
_exptl_crystal_density_diffrn    2.490
_exptl_crystal_density_method    'not measured'
_exptl_crystal_description       plate
_exptl_crystal_F_000             552
_exptl_crystal_size_max          0.23
_exptl_crystal_size_mid          0.12
_exptl_crystal_size_min          0.02
_refine_diff_density_max         1.316
_refine_diff_density_min         -0.959
_refine_diff_density_rms         0.178
_refine_ls_abs_structure_details 'Flack H D (1983), Acta Cryst. A39, 876-881'
_refine_ls_abs_structure_Flack   0.05(5)
_refine_ls_extinction_method     none
_refine_ls_goodness_of_fit_ref   1.027
_refine_ls_hydrogen_treatment    mixed
_refine_ls_matrix_type           full
_refine_ls_number_parameters     118
_refine_ls_number_reflns         1699
_refine_ls_number_restraints     1
_refine_ls_restrained_S_all      1.027
_refine_ls_R_factor_all          0.0628
_refine_ls_R_factor_gt           0.0417
_refine_ls_shift/su_max          0.001
_refine_ls_shift/su_mean         0.000
_refine_ls_structure_factor_coef Fsqd
_refine_ls_weighting_details
'calc w=1/[\s^2^(Fo^2^)+(0.0583P)^2^+0.0000P] where P=(Fo^2^+2Fc^2^)/3'
_refine_ls_weighting_scheme      calc
_refine_ls_wR_factor_gt          0.0972
_refine_ls_wR_factor_ref         0.1051
_reflns_number_gt                1298
_reflns_number_total             1699
_reflns_threshold_expression     >2sigma(I)
_cod_data_source_file            b107665p.txt
_cod_data_source_block           jr0040a
_cod_original_sg_symbol_H-M      Pna2(1)
_cod_database_code               7114976
loop_
_symmetry_equiv_pos_as_xyz
'x, y, z'
'-x, -y, z+1/2'
'-x+1/2, y+1/2, z+1/2'
'x+1/2, -y+1/2, z'
loop_
_atom_site_label
_atom_site_type_symbol
_atom_site_fract_x
_atom_site_fract_y
_atom_site_fract_z
_atom_site_U_iso_or_equiv
_atom_site_adp_type
_atom_site_occupancy
_atom_site_symmetry_multiplicity
_atom_site_calc_flag
I1 I 0.10822(3) 1.59856(5) 0.3993(2) 0.03445(19) Uani 1 1 d
F3 F 0.2053(3) 1.2850(5) 1.1119(7) 0.0401(12) Uani 1 1 d
F4 F 0.1926(3) 1.5423(5) 0.8619(9) 0.0375(14) Uani 1 1 d
F6 F 0.0414(4) 1.2451(6) 0.3353(7) 0.0429(15) Uani 1 1 d
F7 F 0.0586(4) 0.9892(5) 0.5833(8) 0.0438(13) Uani 1 1 d
N1 N 0.1420(7) 0.8863(8) 1.0990(16) 0.050(2) Uani 1 1 d
C1 C 0.1378(6) 0.9947(11) 0.9880(15) 0.036(2) Uani 1 1 d
C2 C 0.1312(6) 1.1332(10) 0.8532(13) 0.031(2) Uani 1 1 d
C3 C 0.1645(6) 1.2766(9) 0.925(2) 0.032(2) Uani 1 1 d
C4 C 0.1569(6) 1.4058(8) 0.7922(14) 0.0292(19) Uani 1 1 d
C5 C 0.1157(6) 1.3999(9) 0.5966(16) 0.031(2) Uani 1 1 d
C6 C 0.0827(7) 1.2597(10) 0.5272(15) 0.033(2) Uani 1 1 d
C7 C 0.0898(6) 1.1258(10) 0.6513(17) 0.036(2) Uani 1 1 d
loop_
_atom_site_aniso_label
_atom_site_aniso_U_11
_atom_site_aniso_U_22
_atom_site_aniso_U_33
_atom_site_aniso_U_23
_atom_site_aniso_U_13
_atom_site_aniso_U_12
I1 0.0475(3) 0.0257(3) 0.0301(3) 0.0074(3) -0.0005(6) 0.00112(18)
F3 0.056(3) 0.036(3) 0.028(3) 0.003(2) -0.006(2) -0.001(2)
F4 0.066(3) 0.0260(19) 0.020(4) 0.000(2) -0.005(3) -0.0100(19)
F6 0.064(4) 0.036(3) 0.029(4) 0.0065(19) -0.014(2) -0.011(2)
F7 0.060(4) 0.026(2) 0.045(3) 0.003(2) -0.001(3) -0.009(2)
N1 0.065(6) 0.037(5) 0.048(6) 0.007(4) -0.002(5) 0.005(4)
C1 0.043(5) 0.032(4) 0.033(5) 0.011(4) 0.001(4) -0.001(4)
C2 0.042(5) 0.031(4) 0.019(7) 0.004(3) 0.005(3) 0.002(3)
C3 0.037(4) 0.037(4) 0.023(7) 0.004(5) -0.004(5) 0.001(3)
C4 0.042(5) 0.026(4) 0.019(4) -0.002(3) 0.006(4) 0.007(4)
C5 0.038(5) 0.031(5) 0.023(5) 0.009(3) 0.006(4) 0.001(3)
C6 0.050(7) 0.024(4) 0.025(5) -0.004(4) 0.000(4) -0.001(4)
C7 0.045(6) 0.028(4) 0.034(6) -0.002(4) 0.007(4) 0.001(4)
loop_
_atom_type_symbol
_atom_type_description
_atom_type_scat_dispersion_real
_atom_type_scat_dispersion_imag
_atom_type_scat_source
C C 0.0033 0.0016 'International Tables Vol C Tables 4.2.6.8 and 6.1.1.4'
F F 0.0171 0.0103 'International Tables Vol C Tables 4.2.6.8 and 6.1.1.4'
N N 0.0061 0.0033 'International Tables Vol C Tables 4.2.6.8 and 6.1.1.4'
I I -0.4742 1.8119 'International Tables Vol C Tables 4.2.6.8 and 6.1.1.4'
loop_
_geom_angle_atom_site_label_1
_geom_angle_atom_site_label_2
_geom_angle_atom_site_label_3
_geom_angle
N1 C1 C2 178.4(11)
C3 C2 C7 119.1(8)
C3 C2 C1 120.4(9)
C7 C2 C1 120.5(8)
F3 C3 C4 121.3(7)
F3 C3 C2 119.8(9)
C4 C3 C2 118.8(11)
F4 C4 C5 119.9(7)
F4 C4 C3 117.6(9)
C5 C4 C3 122.5(8)
C4 C5 C6 118.7(8)
C4 C5 I1 120.9(6)
C6 C5 I1 120.3(7)
F6 C6 C5 121.9(8)
F6 C6 C7 116.8(8)
C5 C6 C7 121.3(9)
F7 C7 C6 121.4(9)
F7 C7 C2 119.0(8)
C6 C7 C2 119.6(8)
loop_
_geom_bond_atom_site_label_1
_geom_bond_atom_site_label_2
_geom_bond_distance
I1 C5 2.088(8)
F3 C3 1.316(14)
F4 C4 1.354(9)
F6 C6 1.349(10)
F7 C7 1.326(10)
N1 C1 1.152(11)
C1 C2 1.448(12)
C2 C3 1.394(12)
C2 C7 1.400(14)
C3 C4 1.376(13)
C4 C5 1.363(13)
C5 C6 1.366(13)
C6 C7 1.378(13)
loop_
_geom_torsion_atom_site_label_1
_geom_torsion_atom_site_label_2
_geom_torsion_atom_site_label_3
_geom_torsion_atom_site_label_4
_geom_torsion
N1 C1 C2 C3 58(40)
N1 C1 C2 C7 -120(40)
C7 C2 C3 F3 -178.6(9)
C1 C2 C3 F3 2.7(14)
C7 C2 C3 C4 -1.2(13)
C1 C2 C3 C4 -179.9(9)
F3 C3 C4 F4 -0.3(14)
C2 C3 C4 F4 -177.6(8)
F3 C3 C4 C5 179.4(9)
C2 C3 C4 C5 2.0(14)
F4 C4 C5 C6 178.0(8)
C3 C4 C5 C6 -1.7(15)
F4 C4 C5 I1 0.9(12)
C3 C4 C5 I1 -178.8(7)
C4 C5 C6 F6 -179.8(9)
I1 C5 C6 F6 -2.7(13)
C4 C5 C6 C7 0.4(15)
I1 C5 C6 C7 177.6(8)
F6 C6 C7 F7 1.0(14)
C5 C6 C7 F7 -179.3(9)
F6 C6 C7 C2 -179.4(8)
C5 C6 C7 C2 0.3(15)
C3 C2 C7 F7 179.7(8)
C1 C2 C7 F7 -1.7(13)
C3 C2 C7 C6 0.1(14)
C1 C2 C7 C6 178.7(9)
