#------------------------------------------------------------------------------
#$Date: 2016-03-26 14:21:19 +0200 (Sat, 26 Mar 2016) $
#$Revision: 180258 $
#$URL: svn://www.crystallography.net/cod/cif/7/11/44/7114478.cif $
#------------------------------------------------------------------------------
#
# This file is available in the Crystallography Open Database (COD),
# http://www.crystallography.net/
#
# All data on this site have been placed in the public domain by the
# contributors.
#
data_7114478
loop_
_publ_author_name
'Beer, Leanne'
'Wallace Cordes, A.'
'Haddon, Robert C.'
'Itkis, Mikhail E.'
'Oakley, Richard T.'
'Reed, Robert W.'
'Robertson, Craig M.'
_publ_section_title
;
 A ??-stacked 1,2,3-dithiazolyl radical. Preparation and solid state
 characterization of (Cl2C3NS)(ClC2NS2)
;
_journal_issue                   17
_journal_name_full               'Chemical Communications'
_journal_page_first              1872
_journal_paper_doi               10.1039/b204855h
_journal_year                    2002
_chemical_formula_moiety         '[(Cl2C2NS)(ClC2NS2)]'
_chemical_formula_sum            'C5 Cl3 N2 S3'
_chemical_formula_weight         290.60
_chemical_name_common            'A 1,2,3-dithiazolyl - Compound 4'
_chemical_name_systematic
; 
? 
;
_space_group_IT_number           14
_symmetry_cell_setting           monoclinic
_symmetry_space_group_name_Hall  '-P 2ybc'
_symmetry_space_group_name_H-M   'P 1 21/c 1'
_atom_sites_solution_primary     direct
_atom_sites_solution_secondary   difmap
_audit_creation_method           SHELXL-97
_cell_angle_alpha                90.00
_cell_angle_beta                 93.428(9)
_cell_angle_gamma                90.00
_cell_formula_units_Z            4
_cell_length_a                   3.8833(6)
_cell_length_b                   17.557(3)
_cell_length_c                   13.668(2)
_cell_measurement_reflns_used    2246
_cell_measurement_temperature    293(2)
_cell_measurement_theta_max      26
_cell_measurement_theta_min      2
_cell_volume                     930.2(3)
_computing_cell_refinement       'CrystalClear (Rigaku Corp, 1999)'
_computing_data_collection       'CrystalClear (Rigaku Corp, 1999)'
_computing_data_reduction        'Texsan (Molecular Structure Corp, 1998)'
_computing_molecular_graphics    'Ortep3,v1.05, L.J.Farrugia,UnivGlasgow'
_computing_publication_material  'SHELXL-97 (Sheldrick, 1997)'
_computing_structure_refinement  'SHELXL-97 (Sheldrick, 1997)'
_computing_structure_solution    'SHELXS-97 (Sheldrick, 1990)'
_diffrn_ambient_temperature      293(2)
_diffrn_measured_fraction_theta_full 0.944
_diffrn_measured_fraction_theta_max 0.944
_diffrn_measurement_device_type  'Mercury CCD - AFC8S'
_diffrn_measurement_method       \w
_diffrn_radiation_monochromator  graphite
_diffrn_radiation_source         'fine-focus sealed tube'
_diffrn_radiation_type           MoK\a
_diffrn_radiation_wavelength     0.7107
_diffrn_reflns_av_R_equivalents  0.031
_diffrn_reflns_av_sigmaI/netI    0.043
_diffrn_reflns_limit_h_max       4
_diffrn_reflns_limit_h_min       -4
_diffrn_reflns_limit_k_max       21
_diffrn_reflns_limit_k_min       -21
_diffrn_reflns_limit_l_max       16
_diffrn_reflns_limit_l_min       -16
_diffrn_reflns_number            1738
_diffrn_reflns_theta_full        26.01
_diffrn_reflns_theta_max         26.01
_diffrn_reflns_theta_min         2.32
_exptl_absorpt_coefficient_mu    1.603
_exptl_absorpt_correction_T_max  1.00
_exptl_absorpt_correction_T_min  0.76
_exptl_absorpt_correction_type   'empirical, R.A.Jacobson, MS Corp, 1998'
_exptl_crystal_colour            black
_exptl_crystal_density_diffrn    2.075
_exptl_crystal_density_method    'not measured'
_exptl_crystal_description       needle
_exptl_crystal_F_000             572
_exptl_crystal_size_max          0.54
_exptl_crystal_size_mid          0.08
_exptl_crystal_size_min          0.04
_refine_diff_density_max         0.379
_refine_diff_density_min         -0.355
_refine_diff_density_rms         0.094
_refine_ls_extinction_method     none
_refine_ls_goodness_of_fit_ref   1.066
_refine_ls_matrix_type           full
_refine_ls_number_parameters     118
_refine_ls_number_reflns         1737
_refine_ls_number_restraints     0
_refine_ls_restrained_S_all      1.066
_refine_ls_R_factor_all          0.0679
_refine_ls_R_factor_gt           0.0457
_refine_ls_shift/su_max          0.001
_refine_ls_shift/su_mean         0.000
_refine_ls_structure_factor_coef Fsqd
_refine_ls_weighting_details
'w=1/[\s^2^(Fo^2^)+(0.0258P)^2^+2.958P] where P=(Fo^2^+2Fc^2^)/3'
_refine_ls_weighting_scheme      calc
_refine_ls_wR_factor_gt          0.0938
_refine_ls_wR_factor_ref         0.1018
_reflns_number_gt                1324
_reflns_number_total             1737
_reflns_threshold_expression     >2sigma(I)
_cod_data_source_file            b204855h.txt
_cod_data_source_block           radical
_cod_depositor_comments
;
The following automatic conversions were performed:

'_refine_ls_weighting_scheme' value 'calc
w=1/[\s^2^(Fo^2^)+(0.0258P)^2^+2.958P] where P=(Fo^2^+2Fc^2^)/3' was
changed to 'calc'. New tag '_refine_ls_weighting_details' was
created. The value of the new tag was set to
'w=1/[\s^2^(Fo^2^)+(0.0258P)^2^+2.958P] where P=(Fo^2^+2Fc^2^)/3'.

Automatic conversion script
Id: cif_fix_values 3143 2015-03-26 13:38:13Z robertas 
;
_cod_original_sg_symbol_H-M      P21/c
_cod_database_code               7114478
loop_
_symmetry_equiv_pos_as_xyz
'x, y, z'
'x, -y+1/2, z+1/2'
'-x, -y, -z'
'-x, y-1/2, -z-1/2'
loop_
_atom_site_label
_atom_site_type_symbol
_atom_site_fract_x
_atom_site_fract_y
_atom_site_fract_z
_atom_site_U_iso_or_equiv
_atom_site_adp_type
_atom_site_occupancy
_atom_site_calc_flag
Cl1 Cl 0.5638(4) 0.85907(8) 0.45789(9) 0.0489(4) Uani 1 d
Cl2 Cl 0.9696(4) 0.96154(8) 0.62832(10) 0.0533(4) Uani 1 d
Cl3 Cl 0.5176(4) 0.58885(7) 0.70678(9) 0.0475(4) Uani 1 d
S1 S 0.2946(3) 0.69941(7) 0.43122(8) 0.0328(3) Uani 1 d
S2 S 0.1045(3) 0.58828(7) 0.42414(9) 0.0365(3) Uani 1 d
S3 S 0.7886(3) 0.74637(7) 0.72540(8) 0.0371(3) Uani 1 d
N1 N 0.2222(11) 0.5628(2) 0.5367(3) 0.0367(9) Uani 1 d
N2 N 0.9298(11) 0.8361(2) 0.7300(3) 0.0389(10) Uani 1 d
C1 C 0.3846(12) 0.6151(3) 0.5882(3) 0.0296(10) Uani 1 d
C2 C 0.4503(11) 0.6890(2) 0.5531(3) 0.0284(10) Uani 1 d
C3 C 0.6194(11) 0.7507(3) 0.6046(3) 0.0261(9) Uani 1 d
C4 C 0.6797(12) 0.8245(3) 0.5721(3) 0.0310(10) Uani 1 d
C5 C 0.8532(12) 0.8682(3) 0.6460(4) 0.0346(11) Uani 1 d
loop_
_atom_site_aniso_label
_atom_site_aniso_U_11
_atom_site_aniso_U_22
_atom_site_aniso_U_33
_atom_site_aniso_U_23
_atom_site_aniso_U_13
_atom_site_aniso_U_12
Cl1 0.0684(9) 0.0433(7) 0.0336(7) 0.0081(6) -0.0079(6) -0.0052(6)
Cl2 0.0670(10) 0.0355(7) 0.0569(9) -0.0073(6) -0.0014(7) -0.0122(6)
Cl3 0.0662(9) 0.0442(7) 0.0306(6) 0.0114(6) -0.0093(6) -0.0056(7)
S1 0.0404(7) 0.0335(6) 0.0238(6) 0.0015(5) -0.0045(5) -0.0012(5)
S2 0.0448(7) 0.0308(6) 0.0327(6) -0.0018(5) -0.0069(5) -0.0013(5)
S3 0.0453(7) 0.0409(7) 0.0242(6) -0.0008(5) -0.0053(5) -0.0025(6)
N1 0.044(2) 0.032(2) 0.034(2) -0.0004(17) -0.0056(19) -0.0005(18)
N2 0.044(3) 0.039(2) 0.032(2) -0.0105(19) -0.0028(19) -0.002(2)
C1 0.033(2) 0.033(2) 0.023(2) 0.0029(19) 0.0023(19) -0.003(2)
C2 0.027(2) 0.033(2) 0.026(2) 0.0003(19) 0.0011(19) 0.0055(19)
C3 0.026(2) 0.031(2) 0.022(2) -0.0019(18) 0.0008(17) 0.0027(18)
C4 0.034(3) 0.033(2) 0.026(2) 0.000(2) 0.004(2) -0.002(2)
C5 0.038(3) 0.031(2) 0.035(3) -0.007(2) 0.004(2) 0.000(2)
loop_
_atom_type_symbol
_atom_type_description
_atom_type_scat_dispersion_real
_atom_type_scat_dispersion_imag
_atom_type_scat_source
C C 0.0033 0.0016 'International Tables Vol C Tables 4.2.6.8 and 6.1.1.4'
S S 0.1246 0.1234 'International Tables Vol C Tables 4.2.6.8 and 6.1.1.4'
Cl Cl 0.1484 0.1585 'International Tables Vol C Tables 4.2.6.8 and 6.1.1.4'
N N 0.0061 0.0033 'International Tables Vol C Tables 4.2.6.8 and 6.1.1.4'
H H 0.0000 0.0000 'International Tables Vol C Tables 4.2.6.8 and 6.1.1.4'
loop_
_geom_angle_atom_site_label_1
_geom_angle_atom_site_label_2
_geom_angle_atom_site_label_3
_geom_angle
C2 S1 S2 92.75(16)
N1 S2 S1 97.69(15)
N2 S3 C3 95.7(2)
C1 N1 S2 114.5(3)
C5 N2 S3 108.7(3)
N1 C1 C2 123.9(4)
N1 C1 Cl3 115.2(3)
C2 C1 Cl3 120.8(3)
C1 C2 C3 128.0(4)
C1 C2 S1 111.1(3)
C3 C2 S1 120.8(3)
C4 C3 C2 129.0(4)
C4 C3 S3 106.3(3)
C2 C3 S3 124.7(3)
C3 C4 C5 111.2(4)
C3 C4 Cl1 125.5(4)
C5 C4 Cl1 123.3(4)
N2 C5 C4 118.1(4)
N2 C5 Cl2 119.3(4)
C4 C5 Cl2 122.5(4)
loop_
_geom_bond_atom_site_label_1
_geom_bond_atom_site_label_2
_geom_bond_distance
Cl1 C4 1.710(5)
Cl2 C5 1.720(5)
Cl3 C1 1.733(4)
S1 C2 1.748(4)
S1 S2 2.0862(18)
S2 N1 1.641(4)
S3 N2 1.667(4)
S3 C3 1.742(4)
N1 C1 1.298(6)
N2 C5 1.298(6)
C1 C2 1.412(6)
C2 C3 1.430(6)
C3 C4 1.393(6)
C4 C5 1.407(6)
