#------------------------------------------------------------------------------
#$Date: 2018-11-29 01:08:29 +0200 (Thu, 29 Nov 2018) $
#$Revision: 212233 $
#$URL: file:///home/coder/svn-repositories/cod/cif/7/12/26/7122655.cif $
#------------------------------------------------------------------------------
#
# This file is available in the Crystallography Open Database (COD),
# http://www.crystallography.net/
#
# All data on this site have been placed in the public domain by the
# contributors.
#
data_7122655
loop_
_publ_author_name
'Bujak, Maciej'
'Stammler, Georg'
'Blomeyer, Sebastian'
'Mitzel, Norbert Werner'
_publ_section_title
;
 The Nature of Interactions of Benzene with CF3I and CF3CH2I
;
_journal_name_full               'Chemical Communications'
_journal_paper_doi               10.1039/C8CC08980A
_journal_year                    2018
_chemical_formula_moiety         'C F3 I'
_chemical_formula_sum            'C F3 I'
_chemical_formula_weight         195.91
_chemical_name_systematic
; 
  Trifluoroiodomethane
;
_space_group_IT_number           64
_space_group_name_H-M_alt        'C m c e'
_symmetry_cell_setting           orthorhombic
_symmetry_space_group_name_Hall  '-C 2ac 2'
_symmetry_space_group_name_H-M   'C m c e'
_atom_sites_solution_primary     direct
_atom_sites_solution_secondary   difmap
_audit_creation_method           SHELXL-97
_audit_update_record
;
2018-10-15 deposited with the CCDC.
2018-11-28 downloaded from the CCDC.
;
_cell_angle_alpha                90.00
_cell_angle_beta                 90.00
_cell_angle_gamma                90.00
_cell_formula_units_Z            8
_cell_length_a                   7.5125(3)
_cell_length_b                   5.8369(2)
_cell_length_c                   19.3089(7)
_cell_measurement_reflns_used    9364
_cell_measurement_temperature    120.0(1)
_cell_measurement_theta_max      31.9
_cell_measurement_theta_min      2.1
_cell_volume                     846.69(5)
_computing_cell_refinement
'CrysAlisPro (Rigaku Oxford Diffraction, 2015)'
_computing_data_collection
'CrysAlisPro (Rigaku Oxford Diffraction, 2015)'
_computing_data_reduction
'CrysAlisPro (Rigaku Oxford Diffraction, 2015)'
_computing_molecular_graphics    'Mercury (C. F. Macrae at al., 2008)'
_computing_publication_material  'SHELXL-97 (G. M. Sheldrick, 2008, 2015)'
_computing_structure_refinement  'SHELXL-97 (G. M. Sheldrick, 2008, 2015)'
_computing_structure_solution    'SHELXS-97 (G. M. Sheldrick, 2008)'
_diffrn_ambient_temperature      120.0(1)
_diffrn_measured_fraction_theta_full 0.998
_diffrn_measured_fraction_theta_max 0.998
_diffrn_measurement_device_type  SuperNova
_diffrn_measurement_method       \w-scans
_diffrn_radiation_monochromator  graphite
_diffrn_radiation_source         'fine-focus sealed tube'
_diffrn_radiation_type           MoK\a
_diffrn_radiation_wavelength     0.71073
_diffrn_reflns_av_R_equivalents  0.0577
_diffrn_reflns_av_sigmaI/netI    0.0144
_diffrn_reflns_limit_h_max       9
_diffrn_reflns_limit_h_min       -9
_diffrn_reflns_limit_k_max       7
_diffrn_reflns_limit_k_min       -7
_diffrn_reflns_limit_l_max       23
_diffrn_reflns_limit_l_min       -23
_diffrn_reflns_number            9884
_diffrn_reflns_theta_full        25.99
_diffrn_reflns_theta_max         25.99
_diffrn_reflns_theta_min         2.11
_exptl_absorpt_coefficient_mu    7.461
_exptl_absorpt_correction_T_max  1.000
_exptl_absorpt_correction_T_min  0.014
_exptl_absorpt_correction_type   multi-scan
_exptl_absorpt_process_details
;
CrysAlisPro 1.171.39.15e (Rigaku Oxford Diffraction, 2015)
Empirical absorption correction using spherical harmonics,
implemented in SCALE3 ABSPACK scaling algorithm.
;
_exptl_crystal_colour            colourless
_exptl_crystal_density_diffrn    3.074
_exptl_crystal_density_method    'not measured'
_exptl_crystal_description       pillar
_exptl_crystal_F_000             688
_exptl_crystal_size_max          0.30
_exptl_crystal_size_mid          0.20
_exptl_crystal_size_min          0.20
_refine_diff_density_max         1.445
_refine_diff_density_min         -0.860
_refine_diff_density_rms         0.175
_refine_ls_extinction_coef       0.0033(6)
_refine_ls_extinction_expression Fc^*^=kFc[1+0.001xFc^2^\l^3^/sin(2\q)]^-1/4^
_refine_ls_extinction_method     SHELXL
_refine_ls_goodness_of_fit_ref   1.096
_refine_ls_matrix_type           full
_refine_ls_number_parameters     45
_refine_ls_number_reflns         450
_refine_ls_number_restraints     50
_refine_ls_restrained_S_all      1.204
_refine_ls_R_factor_all          0.0385
_refine_ls_R_factor_gt           0.0383
_refine_ls_shift/su_max          0.000
_refine_ls_shift/su_mean         0.000
_refine_ls_structure_factor_coef Fsqd
_refine_ls_weighting_details
'calc w=1/[\s^2^(Fo^2^)+(0.0325P)^2^+23.1739P] where P=(Fo^2^+2Fc^2^)/3'
_refine_ls_weighting_scheme      calc
_refine_ls_wR_factor_gt          0.0892
_refine_ls_wR_factor_ref         0.0893
_reflns_number_gt                448
_reflns_number_total             450
_reflns_threshold_expression     >2sigma(I)
_cod_data_source_file            c8cc08980a1.cif
_cod_data_source_block           CF3I_120K
_cod_depositor_comments
;
The following automatic conversions were performed:

'_symmetry_cell_setting' value 'Orthorhombic' changed to
'orthorhombic' according to
/home/data/users/saulius/crontab/automatic-downloads/rss-feeds/RSC/lib/dictionaries/cif_core.dic
dictionary named 'cif_core.dic' version 2.4.2 from 2011-04-26.

Automatic conversion script
Id: cif_fix_values 4973 2017-02-22 13:04:09Z antanas 
;
_cod_original_sg_symbol_Hall     '-C 2bc 2'
_cod_original_sg_symbol_H-M      'C m c a'
_cod_database_code               7122655
loop_
_symmetry_equiv_pos_as_xyz
'x, y, z'
'-x, -y+1/2, z+1/2'
'-x, y+1/2, -z+1/2'
'x, -y, -z'
'x+1/2, y+1/2, z'
'-x+1/2, -y+1, z+1/2'
'-x+1/2, y+1, -z+1/2'
'x+1/2, -y+1/2, -z'
'-x, -y, -z'
'x, y-1/2, -z-1/2'
'x, -y-1/2, z-1/2'
'-x, y, z'
'-x+1/2, -y+1/2, -z'
'x+1/2, y, -z-1/2'
'x+1/2, -y, z-1/2'
'-x+1/2, y+1/2, z'
loop_
_atom_site_label
_atom_site_type_symbol
_atom_site_fract_x
_atom_site_fract_y
_atom_site_fract_z
_atom_site_U_iso_or_equiv
_atom_site_adp_type
_atom_site_occupancy
_atom_site_symmetry_multiplicity
_atom_site_calc_flag
_atom_site_refinement_flags
_atom_site_disorder_assembly
_atom_site_disorder_group
C1 C 0.0000 0.315(2) 0.0918(7) 0.050(3) Uani 1 2 d SD . .
I1 I 0.0000 0.10547(15) 0.18191(4) 0.0419(4) Uani 1 2 d S A .
F11 F 0.0000 0.5391(18) 0.1140(7) 0.075(4) Uani 0.775(14) 2 d SPDU A 1
F21 F 0.1425(9) 0.2923(14) 0.0572(4) 0.069(3) Uani 0.775(14) 1 d PDU A 1
F12 F 0.0000 0.148(6) 0.0393(19) 0.069(9) Uani 0.225(14) 2 d SPDU A 2
F22 F 0.140(3) 0.437(4) 0.0737(19) 0.089(7) Uani 0.225(14) 1 d PDU A 2
loop_
_atom_site_aniso_label
_atom_site_aniso_U_11
_atom_site_aniso_U_22
_atom_site_aniso_U_33
_atom_site_aniso_U_23
_atom_site_aniso_U_13
_atom_site_aniso_U_12
C1 0.051(7) 0.057(8) 0.043(7) 0.016(7) 0.000 0.000
I1 0.0477(6) 0.0512(6) 0.0267(5) 0.0042(3) 0.000 0.000
F11 0.082(7) 0.049(5) 0.094(7) 0.006(5) 0.000 0.000
F21 0.072(3) 0.070(4) 0.064(3) 0.012(3) 0.017(3) 0.007(3)
F12 0.078(12) 0.072(12) 0.057(12) 0.004(9) 0.000 0.000
F22 0.090(8) 0.089(8) 0.088(8) 0.001(3) 0.000(3) -0.003(3)
loop_
_atom_type_symbol
_atom_type_description
_atom_type_scat_dispersion_real
_atom_type_scat_dispersion_imag
_atom_type_scat_source
C C 0.0033 0.0016 'International Tables Vol C Tables 4.2.6.8 and 6.1.1.4'
F F 0.0171 0.0103 'International Tables Vol C Tables 4.2.6.8 and 6.1.1.4'
I I -0.4742 1.8119 'International Tables Vol C Tables 4.2.6.8 and 6.1.1.4'
loop_
_geom_angle_atom_site_label_1
_geom_angle_atom_site_label_2
_geom_angle_atom_site_label_3
_geom_angle
_geom_angle_site_symmetry_1
_geom_angle_site_symmetry_3
F21 C1 F21 115.1(11) 12 .
F22 C1 F22 106(2) . 12
F21 C1 F11 105.2(7) 12 .
F21 C1 F11 105.2(7) . .
F22 C1 F12 100.5(16) . .
F22 C1 F12 100.5(16) 12 .
F21 C1 I1 111.8(7) 12 .
F21 C1 I1 111.8(7) . .
F22 C1 I1 121.9(16) . .
F22 C1 I1 121.9(16) 12 .
F11 C1 I1 106.9(9) . .
F12 C1 I1 101.1(18) . .
loop_
_geom_bond_atom_site_label_1
_geom_bond_atom_site_label_2
_geom_bond_distance
_geom_bond_site_symmetry_2
C1 F21 1.268(9) 12
C1 F21 1.268(9) .
C1 F22 1.32(3) .
C1 F22 1.32(3) 12
C1 F11 1.379(14) .
C1 F12 1.40(3) .
C1 I1 2.126(13) .
