#------------------------------------------------------------------------------
#$Date: 2016-03-26 16:24:46 +0200 (Sat, 26 Mar 2016) $
#$Revision: 180337 $
#$URL: svn://www.crystallography.net/cod/cif/7/20/06/7200673.cif $
#------------------------------------------------------------------------------
#
# This file is available in the Crystallography Open Database (COD),
# http://www.crystallography.net/
#
# All data on this site have been placed in the public domain by the
# contributors.
#
data_7200673
loop_
_publ_author_name
'Olejniczak, Anna'
'Katrusiak, Andrzej'
'Vij, Ashwani'
_publ_section_title
;
 Weak intermolecular interactions and molecular aggregation in
 isostructural dihaloperfluoroethanes,
;
_journal_issue                   6
_journal_name_full               CrystEngComm
_journal_page_first              1073
_journal_paper_doi               10.1039/b819942f
_journal_volume                  11
_journal_year                    2009
_chemical_formula_moiety         'C2 Br F4 I'
_chemical_formula_sum            'C2 Br F4 I'
_chemical_formula_weight         306.83
_chemical_name_common            1-bromo-2-iodo-1,1,2,2-tetrafluoroethane
_chemical_name_systematic
;
1-bromo-2-iodo-1,1,2,2-tetrafluoroethane
;
_space_group_IT_number           14
_symmetry_cell_setting           monoclinic
_symmetry_space_group_name_Hall  '-P 2yn'
_symmetry_space_group_name_H-M   'P 1 21/n 1'
_atom_sites_solution_primary     direct
_atom_sites_solution_secondary   difmap
_cell_angle_alpha                90.00
_cell_angle_beta                 108.30(3)
_cell_angle_gamma                90.00
_cell_formula_units_Z            2
_cell_length_a                   6.1357(12)
_cell_length_b                   6.1449(12)
_cell_length_c                   8.3967(17)
_cell_measurement_pressure       0.60E6(5)
_cell_measurement_reflns_used    225
_cell_measurement_temperature    296(2)
_cell_measurement_theta_max      28.66
_cell_measurement_theta_min      3.63
_cell_volume                     300.57(12)
_computing_cell_refinement       'CrysAlis (Oxford Diffraction, 2002)'
_computing_data_collection       'CrysAlis (Oxford Diffraction, 2002)'
_computing_data_reduction        'CrysAlis (Oxford Diffraction, 2002)'
_computing_molecular_graphics
;X-Seed (Barbour, 2001)
and POV-Ray (Persistence of Vision, 2004)
;
_computing_publication_material  'SHELXL-97 (Sheldrick, 1997)'
_computing_structure_refinement  'SHELXL-97 (Sheldrick, 1997)'
_computing_structure_solution    'SHELXS-97 (Sheldrick, 1997)'
_diffrn_ambient_temperature      296(2)
_diffrn_detector_area_resol_mean 16.4
_diffrn_measured_fraction_theta_full 0.290
_diffrn_measured_fraction_theta_max 0.290
_diffrn_measurement_device_type  'Kuma KM4CCD \k geometry'
_diffrn_measurement_method
;HP omega scans - for more details see:
A. Budzianowski, A. Katrusiak in High-Pressure Crystallography
(Eds.: A. Katrusiak, P. F. McMillan),
Dordrecht: Kluwer Acad. Publ., 2004 pp.157-168
;
_diffrn_radiation_monochromator  graphite
_diffrn_radiation_source         'fine-focus sealed tube'
_diffrn_radiation_type           MoK\a
_diffrn_radiation_wavelength     0.71073
_diffrn_reflns_av_R_equivalents  0.0617
_diffrn_reflns_av_sigmaI/netI    0.0238
_diffrn_reflns_limit_h_max       8
_diffrn_reflns_limit_h_min       -8
_diffrn_reflns_limit_k_max       8
_diffrn_reflns_limit_k_min       -8
_diffrn_reflns_limit_l_max       4
_diffrn_reflns_limit_l_min       -4
_diffrn_reflns_number            2252
_diffrn_reflns_theta_full        28.66
_diffrn_reflns_theta_max         28.66
_diffrn_reflns_theta_min         3.63
_exptl_absorpt_coefficient_mu    11.950
_exptl_absorpt_correction_T_max  0.28
_exptl_absorpt_correction_T_min  0.12
_exptl_absorpt_correction_type   integration
_exptl_absorpt_process_details
;
Katrusiak, A. (2003). REDSHADE - Program for correcting
reflections intensities for DAC absorption, gasket shadowing
and sample crystal absorption. Adam Mickiewicz University, Pozna\'n.
Katrusiak, A. (2004). Z. Kristallogr. 219, 461-467
;
_exptl_crystal_colour            colourless
_exptl_crystal_density_diffrn    3.390
_exptl_crystal_density_method    'not measured'
_exptl_crystal_description       plate
_exptl_crystal_F_000             272
_exptl_crystal_size_max          0.41
_exptl_crystal_size_mid          0.41
_exptl_crystal_size_min          0.09
_refine_diff_density_max         0.825
_refine_diff_density_min         -0.959
_refine_diff_density_rms         0.188
_refine_ls_extinction_coef       0.24(7)
_refine_ls_extinction_expression Fc^*^=kFc[1+0.001xFc^2^\l^3^/sin(2\q)]^-1/4^
_refine_ls_extinction_method     SHELXL
_refine_ls_goodness_of_fit_ref   1.082
_refine_ls_matrix_type           full
_refine_ls_number_parameters     18
_refine_ls_number_reflns         225
_refine_ls_number_restraints     1
_refine_ls_restrained_S_all      1.079
_refine_ls_R_factor_all          0.1240
_refine_ls_R_factor_gt           0.1166
_refine_ls_shift/su_max          0.000
_refine_ls_shift/su_mean         0.000
_refine_ls_structure_factor_coef Fsqd
_refine_ls_weighting_details
'calc w=1/[\s^2^(Fo^2^)+(0.1087P)^2^+11.9985P] where P=(Fo^2^+2Fc^2^)/3'
_refine_ls_weighting_scheme      calc
_refine_ls_wR_factor_gt          0.2670
_refine_ls_wR_factor_ref         0.2734
_reflns_number_gt                208
_reflns_number_total             225
_reflns_threshold_expression     >2sigma(I)
_cod_data_source_file            b819942f.txt
_cod_data_source_block           BrCF2CF2I_06GPa
_cod_depositor_comments
;
The following automatic conversions were performed:
'_symmetry_cell_setting' value 'Monoclinic' changed to 'monoclinic'
according to '/home/saulius/struct/CIF-dictionaries/cif_core.dic'
dictionary named 'cif_core.dic' version 2.4.1 from 2010-06-29.

Automatic conversion script
Id: cif_fix_enum 1527 2010-12-29 10:47:43Z saulius 
;
_cod_original_cell_volume        300.57(10)
_cod_original_sg_symbol_H-M      'P 21/n'
_cod_database_code               7200673
loop_
_symmetry_equiv_pos_as_xyz
'x, y, z'
'-x+1/2, y+1/2, -z+1/2'
'-x, -y, -z'
'x-1/2, -y-1/2, z-1/2'
loop_
_atom_site_label
_atom_site_type_symbol
_atom_site_fract_x
_atom_site_fract_y
_atom_site_fract_z
_atom_site_U_iso_or_equiv
_atom_site_adp_type
_atom_site_occupancy
_atom_site_symmetry_multiplicity
_atom_site_calc_flag
_atom_site_refinement_flags
_atom_site_disorder_assembly
_atom_site_disorder_group
I1A I 0.7447(6) 0.7439(4) -0.0907(11) 0.068(3) Uiso 0.50 1 d P . .
Br1A Br 0.7447(6) 0.7439(4) -0.0907(11) 0.068(3) Uiso 0.50 1 d P . .
C1A C 0.543(8) 0.603(6) 0.052(7) 0.083(13) Uiso 1 1 d D . .
F3A F 0.686(9) 0.528(5) 0.151(14) 0.132(12) Uiso 1 1 d . . .
F2A F 0.366(8) 0.721(4) 0.050(12) 0.125(11) Uiso 1 1 d . . .
loop_
_atom_type_symbol
_atom_type_description
_atom_type_scat_dispersion_real
_atom_type_scat_dispersion_imag
_atom_type_scat_source
C C 0.0033 0.0016 'International Tables Vol C Tables 4.2.6.8 and 6.1.1.4'
F F 0.0171 0.0103 'International Tables Vol C Tables 4.2.6.8 and 6.1.1.4'
Br Br -0.2901 2.4595 'International Tables Vol C Tables 4.2.6.8 and 6.1.1.4'
I I -0.4742 1.8119 'International Tables Vol C Tables 4.2.6.8 and 6.1.1.4'
loop_
_geom_angle_atom_site_label_1
_geom_angle_atom_site_label_2
_geom_angle_atom_site_label_3
_geom_angle
_geom_angle_site_symmetry_1
_geom_angle_site_symmetry_3
_geom_angle_publ_flag
F3A C1A F2A 135(8) . . ?
F3A C1A C1A 98(6) . 3_665 ?
F2A C1A C1A 108(5) . 3_665 ?
F3A C1A I1A 97(5) . . ?
F2A C1A I1A 113(5) . . ?
C1A C1A I1A 99(4) 3_665 . ?
F3A C1A Br1A 97(5) . . ?
F2A C1A Br1A 113(5) . . ?
C1A C1A Br1A 99(4) 3_665 . ?
I1A C1A Br1A 0.0(4) . . ?
loop_
_geom_bond_atom_site_label_1
_geom_bond_atom_site_label_2
_geom_bond_distance
_geom_bond_site_symmetry_2
_geom_bond_publ_flag
I1A C1A 2.16(5) . ?
Br1A C1A 2.16(5) . ?
C1A F3A 1.10(9) . ?
C1A F2A 1.30(5) . ?
C1A C1A 1.53(2) 3_665 ?
