#------------------------------------------------------------------------------
#$Date: 2015-12-09 14:21:31 +0200 (Wed, 09 Dec 2015) $
#$Revision: 171012 $
#$URL: svn://www.crystallography.net/cod/cif/7/22/18/7221871.cif $
#------------------------------------------------------------------------------
#
# This file is available in the Crystallography Open Database (COD),
# http://www.crystallography.net/
#
# All data on this site have been placed in the public domain by the
# contributors.
#
data_7221871
loop_
_publ_author_name
'George, Janine'
'Wang, Ai'
'Deringer, Volker L.'
'Wang, Ruimin'
'Dronskowski, Richard'
'Englert, Ulli'
_publ_section_title
;
 Anisotropic displacement parameters from dispersion-corrected DFT methods
 and their experimental validation by temperature-dependent X-ray
 diffraction
;
_journal_issue                   38
_journal_name_full               CrystEngComm
_journal_page_first              7414
_journal_paper_doi               10.1039/C5CE01219H
_journal_volume                  17
_journal_year                    2015
_chemical_absolute_configuration ad
_chemical_formula_moiety         'C5 Cl5 N'
_chemical_formula_sum            'C5 Cl5 N'
_chemical_formula_weight         251.31
_chemical_name_common            C5CL5N_200K
_chemical_name_systematic        Pentachloropyridine
_space_group_crystal_system      monoclinic
_space_group_IT_number           7
_space_group_name_Hall           'P -2yc'
_space_group_name_H-M_alt        'P 1 c 1'
_symmetry_space_group_name_Hall  'P -2yc'
_symmetry_space_group_name_H-M   'P 1 c 1'
_audit_creation_method           SHELXL-2013
_audit_update_record
;
2015-05-11 deposited with the CCDC.
2015-08-25 downloaded from the CCDC.
;
_cell_angle_alpha                90
_cell_angle_beta                 99.833(5)
_cell_angle_gamma                90
_cell_formula_units_Z            2
_cell_length_a                   5.3290(14)
_cell_length_b                   5.1935(13)
_cell_length_c                   14.949(4)
_cell_measurement_reflns_used    499
_cell_measurement_temperature    200(2)
_cell_measurement_theta_max      25.74
_cell_measurement_theta_min      2.77
_cell_volume                     407.65(18)
_computing_cell_refinement       'Bruker SAINT'
_computing_data_collection       'Bruker SMART'
_computing_data_reduction        'Bruker SAINT'
_computing_structure_refinement  'SHELXL-2013 (Sheldrick, 2013)'
_computing_structure_solution    SHELXS-97
_diffrn_ambient_temperature      200(2)
_diffrn_measured_fraction_theta_full 0.999
_diffrn_measured_fraction_theta_max 0.906
_diffrn_measurement_device_type  'CCD area detector'
_diffrn_measurement_method       '\w scans'
_diffrn_radiation_monochromator  'multilayer optics'
_diffrn_radiation_type           MoK\a
_diffrn_radiation_wavelength     0.71073
_diffrn_reflns_av_R_equivalents  0.0369
_diffrn_reflns_av_unetI/netI     0.0654
_diffrn_reflns_laue_measured_fraction_full 0.999
_diffrn_reflns_laue_measured_fraction_max 0.906
_diffrn_reflns_limit_h_max       7
_diffrn_reflns_limit_h_min       -7
_diffrn_reflns_limit_k_max       5
_diffrn_reflns_limit_k_min       -7
_diffrn_reflns_limit_l_max       20
_diffrn_reflns_limit_l_min       -20
_diffrn_reflns_number            2974
_diffrn_reflns_point_group_measured_fraction_full 0.871
_diffrn_reflns_point_group_measured_fraction_max 0.751
_diffrn_reflns_theta_full        25.242
_diffrn_reflns_theta_max         30.771
_diffrn_reflns_theta_min         2.766
_diffrn_source                   'Incoatec microsource'
_exptl_absorpt_coefficient_mu    1.701
_exptl_absorpt_correction_T_max  0.7461
_exptl_absorpt_correction_T_min  0.6085
_exptl_absorpt_correction_type   multi-scan
_exptl_absorpt_process_details   SADABS
_exptl_crystal_colour            colourless
_exptl_crystal_density_diffrn    2.047
_exptl_crystal_description       plate
_exptl_crystal_F_000             244
_exptl_crystal_size_max          0.260
_exptl_crystal_size_mid          0.240
_exptl_crystal_size_min          0.060
_refine_diff_density_max         0.583
_refine_diff_density_min         -0.383
_refine_diff_density_rms         0.099
_refine_ls_abs_structure_details
;
 Flack x determined using 460 quotients [(I+)-(I-)]/[(I+)+(I-)]
 (Parsons and Flack (2004), Acta Cryst. A60, s61).
;
_refine_ls_abs_structure_Flack   0.2(2)
_refine_ls_extinction_method     none
_refine_ls_goodness_of_fit_ref   0.992
_refine_ls_hydrogen_treatment    undef
_refine_ls_matrix_type           full
_refine_ls_number_parameters     100
_refine_ls_number_reflns         1926
_refine_ls_number_restraints     2
_refine_ls_restrained_S_all      0.992
_refine_ls_R_factor_all          0.0638
_refine_ls_R_factor_gt           0.0474
_refine_ls_shift/su_max          0.000
_refine_ls_shift/su_mean         0.000
_refine_ls_structure_factor_coef Fsqd
_refine_ls_weighting_details
;
 w=1/[\s^2^(Fo^2^)+(0.0400P)^2^]
 where P=(Fo^2^+2Fc^2^)/3
;
_refine_ls_weighting_scheme      calc
_refine_ls_wR_factor_gt          0.0897
_refine_ls_wR_factor_ref         0.0979
_reflns_Friedel_coverage         0.653
_reflns_friedel_fraction_full    0.743
_reflns_friedel_fraction_max     0.595
_reflns_number_gt                1551
_reflns_number_total             1926
_reflns_threshold_expression     'I > 2\s(I)'
_cod_data_source_file            c5ce01219h2.cif
_cod_data_source_block           C5CL5N_200K
_cod_depositor_comments
'Adding full bibliography for 7221871--7221875.cif.'
_cod_original_cell_volume        407.66(18)
_cod_database_code               7221871
_shelx_space_group_comment
;
The symmetry employed for this shelxl refinement is uniquely defined
by the following loop, which should always be used as a source of
symmetry information in preference to the above space-group names.
They are only intended as comments.
;
_shelx_estimated_absorpt_t_min   0.666
_shelx_estimated_absorpt_t_max   0.905
_shelxl_version_number           2013-2
_shelx_res_file
;
TITL a14_96 in Pc
CELL 0.71073   5.3290   5.1935  14.9491  90.000  99.833  90.000
ZERR    2.00   0.0014   0.0013   0.0040   0.000   0.005   0.000
LATT -1
SYMM X, -Y, 0.5+Z
SFAC  C   N   CL
UNIT   10    2  10
TEMP -73
L.S. 8
ACTA
SIZE 0.26 0.24 0.06
BOND
FMAP 2
PLAN -20
WGHT    0.040000
FVAR       0.26595
CL1   3    0.114430    0.674843    0.332038    11.00000    0.03044    0.04123 =
         0.02844   -0.00367   -0.00494   -0.00247
CL2   3    0.528532    1.104992    0.323893    11.00000    0.04562    0.03527 =
         0.02781    0.00987    0.00601    0.00057
CL3   3    0.961096    1.174543    0.491907    11.00000    0.02926    0.03223 =
         0.04051   -0.00423    0.00810   -0.00827
CL4   3    0.969965    0.815006    0.659971    11.00000    0.03157    0.04683 =
         0.02948   -0.00194   -0.00576    0.00061
CL5   3    0.536135    0.399271    0.654235    11.00000    0.04195    0.03599 =
         0.02862    0.00782    0.00743   -0.00059
C1    1    0.358249    0.724133    0.421989    11.00000    0.01942    0.03316 =
         0.02533   -0.00080    0.00481    0.00031
C2    1    0.537505    0.914492    0.417526    11.00000    0.02284    0.02668 =
         0.02210   -0.00563    0.00700    0.00161
C3    1    0.733546    0.946002    0.492938    11.00000    0.02327    0.02359 =
         0.02993   -0.00085    0.00729    0.00011
C4    1    0.733426    0.784998    0.567402    11.00000    0.02459    0.02371 =
         0.02008   -0.00558    0.00008    0.00428
C5    1    0.542416    0.604313    0.564020    11.00000    0.02928    0.02159 =
         0.02356    0.00242    0.00323    0.00600
N1    2    0.361631    0.573211    0.493491    11.00000    0.02163    0.02592 =
         0.02478   -0.00253    0.00290   -0.00497
HKLF 4

REM  a14_96 in Pc
REM R1 =  0.0474 for    1551 Fo > 4sig(Fo)  and  0.0638 for all    1926 data
REM    100 parameters refined using      2 restraints

END

WGHT      0.0402      0.0000

REM Highest difference peak  0.583,  deepest hole -0.383,  1-sigma level  0.099
Q1    1   1.1269  1.3128  0.4920  11.00000  0.05    0.58
Q2    1   0.3792  0.9841  0.2982  11.00000  0.05    0.42
Q3    1   0.7002  0.8778  0.5316  11.00000  0.05    0.41
Q4    1   0.3939  0.6027  0.4547  11.00000  0.05    0.39
Q5    1   1.1169  0.7056  0.6774  11.00000  0.05    0.37
Q6    1   0.8397  0.6855  0.6326  11.00000  0.05    0.37
Q7    1   1.1155  0.9589  0.6583  11.00000  0.05    0.36
Q8    1   0.3501  1.1879  0.3066  11.00000  0.05    0.34
Q9    1  -0.0285  0.5354  0.3163  11.00000  0.05    0.34
Q10   1   0.5148  0.5862  0.5070  11.00000  0.05    0.33
Q11   1   0.3452  0.3947  0.2781  11.00000  0.05    0.33
Q12   1   1.0043  1.0626  0.6520  11.00000  0.05    0.32
Q13   1   0.6624  1.2303  0.3403  11.00000  0.05    0.32
Q14   1  -0.0348  0.7946  0.3178  11.00000  0.05    0.32
Q15   1   0.8121  1.2860  0.4875  11.00000  0.05    0.32
Q16   1   1.1185  1.0890  0.5090  11.00000  0.05    0.32
Q17   1   0.3944  1.1681  0.2505  11.00000  0.05    0.32
Q18   1   0.1249  0.6516  0.3127  11.00000  0.05    0.32
Q19   1   0.4352  0.2354  0.6431  11.00000  0.05    0.31
Q20   1   0.6833  0.5165  0.6861  11.00000  0.05    0.31
;
_shelx_res_checksum              44049
loop_
_space_group_symop_operation_xyz
'x, y, z'
'x, -y, z+1/2'
loop_
_atom_site_label
_atom_site_type_symbol
_atom_site_fract_x
_atom_site_fract_y
_atom_site_fract_z
_atom_site_U_iso_or_equiv
_atom_site_adp_type
_atom_site_occupancy
_atom_site_site_symmetry_order
_atom_site_calc_flag
Cl1 Cl 0.1144(3) 0.6748(4) 0.33204(11) 0.0345(4) Uani 1 1 d
Cl2 Cl 0.5285(3) 1.1050(4) 0.32389(10) 0.0363(5) Uani 1 1 d
Cl3 Cl 0.9611(3) 1.1745(3) 0.49191(12) 0.0337(4) Uani 1 1 d
Cl4 Cl 0.9700(3) 0.8150(4) 0.65997(12) 0.0372(4) Uani 1 1 d
Cl5 Cl 0.5361(3) 0.3993(4) 0.65424(11) 0.0354(5) Uani 1 1 d
C1 C 0.3582(12) 0.7241(14) 0.4220(4) 0.0259(15) Uani 1 1 d
C2 C 0.5375(13) 0.9145(14) 0.4175(4) 0.0235(14) Uani 1 1 d
C3 C 0.7335(13) 0.9460(14) 0.4929(5) 0.0253(14) Uani 1 1 d
C4 C 0.7334(12) 0.7850(13) 0.5674(4) 0.0232(13) Uani 1 1 d
C5 C 0.5424(14) 0.6043(13) 0.5640(5) 0.0250(15) Uani 1 1 d
N1 N 0.3616(11) 0.5732(12) 0.4935(4) 0.0242(13) Uani 1 1 d
loop_
_atom_site_aniso_label
_atom_site_aniso_U_11
_atom_site_aniso_U_22
_atom_site_aniso_U_33
_atom_site_aniso_U_23
_atom_site_aniso_U_13
_atom_site_aniso_U_12
Cl1 0.0304(9) 0.0412(10) 0.0284(8) -0.0037(9) -0.0049(7) -0.0025(9)
Cl2 0.0456(13) 0.0353(11) 0.0278(8) 0.0099(8) 0.0060(9) 0.0006(8)
Cl3 0.0293(8) 0.0322(9) 0.0405(9) -0.0042(8) 0.0081(7) -0.0083(8)
Cl4 0.0316(10) 0.0468(12) 0.0295(8) -0.0019(9) -0.0058(7) 0.0006(10)
Cl5 0.0420(11) 0.0360(12) 0.0286(8) 0.0078(8) 0.0074(8) -0.0006(9)
C1 0.019(3) 0.033(4) 0.025(3) -0.001(3) 0.005(3) 0.000(3)
C2 0.023(3) 0.027(4) 0.022(3) -0.006(2) 0.007(2) 0.002(3)
C3 0.023(3) 0.024(3) 0.030(3) -0.001(3) 0.007(3) 0.000(3)
C4 0.025(3) 0.024(4) 0.020(3) -0.006(3) 0.000(2) 0.004(3)
C5 0.029(4) 0.022(4) 0.024(3) 0.002(3) 0.003(3) 0.006(3)
N1 0.022(3) 0.026(3) 0.025(3) -0.003(2) 0.003(2) -0.005(2)
loop_
_atom_type_symbol
_atom_type_description
_atom_type_scat_dispersion_real
_atom_type_scat_dispersion_imag
_atom_type_scat_source
C C 0.0033 0.0016 'International Tables Vol C Tables 4.2.6.8 and 6.1.1.4'
N N 0.0061 0.0033 'International Tables Vol C Tables 4.2.6.8 and 6.1.1.4'
Cl Cl 0.1484 0.1585 'International Tables Vol C Tables 4.2.6.8 and 6.1.1.4'
loop_
_geom_angle_atom_site_label_1
_geom_angle_atom_site_label_2
_geom_angle_atom_site_label_3
_geom_angle
N1 C1 C2 123.2(6)
N1 C1 Cl1 116.6(5)
C2 C1 Cl1 120.2(5)
C1 C2 C3 117.9(6)
C1 C2 Cl2 122.0(5)
C3 C2 Cl2 120.1(6)
C4 C3 C2 117.9(6)
C4 C3 Cl3 121.6(6)
C2 C3 Cl3 120.4(6)
C5 C4 C3 118.7(6)
C5 C4 Cl4 121.9(5)
C3 C4 Cl4 119.4(5)
N1 C5 C4 123.3(6)
N1 C5 Cl5 116.3(6)
C4 C5 Cl5 120.3(5)
C5 N1 C1 118.9(6)
loop_
_geom_bond_atom_site_label_1
_geom_bond_atom_site_label_2
_geom_bond_distance
Cl1 C1 1.722(7)
Cl2 C2 1.708(7)
Cl3 C3 1.699(7)
Cl4 C4 1.712(6)
Cl5 C5 1.723(7)
C1 N1 1.323(9)
C1 C2 1.384(9)
C2 C3 1.410(10)
C3 C4 1.392(9)
C4 C5 1.379(9)
C5 N1 1.311(9)
