#------------------------------------------------------------------------------
#$Date: 2015-12-09 14:21:31 +0200 (Wed, 09 Dec 2015) $
#$Revision: 171012 $
#$URL: svn://www.crystallography.net/cod/cif/7/22/18/7221874.cif $
#------------------------------------------------------------------------------
#
# This file is available in the Crystallography Open Database (COD),
# http://www.crystallography.net/
#
# All data on this site have been placed in the public domain by the
# contributors.
#
data_7221874
loop_
_publ_author_name
'George, Janine'
'Wang, Ai'
'Deringer, Volker L.'
'Wang, Ruimin'
'Dronskowski, Richard'
'Englert, Ulli'
_publ_section_title
;
 Anisotropic displacement parameters from dispersion-corrected DFT methods
 and their experimental validation by temperature-dependent X-ray
 diffraction
;
_journal_issue                   38
_journal_name_full               CrystEngComm
_journal_page_first              7414
_journal_paper_doi               10.1039/C5CE01219H
_journal_volume                  17
_journal_year                    2015
_chemical_absolute_configuration ad
_chemical_formula_moiety         'C5 Cl5 N'
_chemical_formula_sum            'C5 Cl5 N'
_chemical_formula_weight         251.31
_chemical_name_common            C5CL5N_250K
_chemical_name_systematic        Pentachloropyridine
_space_group_crystal_system      monoclinic
_space_group_IT_number           7
_space_group_name_Hall           'P -2yc'
_space_group_name_H-M_alt        'P 1 c 1'
_symmetry_space_group_name_Hall  'P -2yc'
_symmetry_space_group_name_H-M   'P 1 c 1'
_audit_creation_method           SHELXL-2013
_audit_update_record
;
2015-05-21 deposited with the CCDC.
2015-08-25 downloaded from the CCDC.
;
_cell_angle_alpha                90
_cell_angle_beta                 100.003(6)
_cell_angle_gamma                90
_cell_formula_units_Z            2
_cell_length_a                   5.3426(15)
_cell_length_b                   5.2051(15)
_cell_length_c                   15.021(4)
_cell_measurement_reflns_used    499
_cell_measurement_temperature    250(2)
_cell_measurement_theta_max      25.74
_cell_measurement_theta_min      2.77
_cell_volume                     411.4(2)
_computing_cell_refinement       'Bruker SAINT'
_computing_data_collection       'Bruker SMART'
_computing_data_reduction        'Bruker SAINT'
_computing_structure_refinement  'SHELXL-2013 (Sheldrick, 2013)'
_computing_structure_solution    SHELXS-97
_diffrn_ambient_temperature      250(2)
_diffrn_measured_fraction_theta_full 0.999
_diffrn_measured_fraction_theta_max 0.906
_diffrn_measurement_device_type  'CCD area detector'
_diffrn_measurement_method       '\w scans'
_diffrn_radiation_monochromator  'multilayer optics'
_diffrn_radiation_type           MoK\a
_diffrn_radiation_wavelength     0.71073
_diffrn_reflns_av_R_equivalents  0.0410
_diffrn_reflns_av_unetI/netI     0.0743
_diffrn_reflns_laue_measured_fraction_full 0.999
_diffrn_reflns_laue_measured_fraction_max 0.906
_diffrn_reflns_limit_h_max       7
_diffrn_reflns_limit_h_min       -7
_diffrn_reflns_limit_k_max       5
_diffrn_reflns_limit_k_min       -7
_diffrn_reflns_limit_l_max       21
_diffrn_reflns_limit_l_min       -20
_diffrn_reflns_number            2999
_diffrn_reflns_point_group_measured_fraction_full 0.873
_diffrn_reflns_point_group_measured_fraction_max 0.750
_diffrn_reflns_theta_full        25.242
_diffrn_reflns_theta_max         30.760
_diffrn_reflns_theta_min         2.754
_diffrn_source                   'Incoatec microsource'
_exptl_absorpt_coefficient_mu    1.686
_exptl_absorpt_correction_T_max  0.7461
_exptl_absorpt_correction_T_min  0.6085
_exptl_absorpt_correction_type   multi-scan
_exptl_absorpt_process_details   SADABS
_exptl_crystal_colour            colourless
_exptl_crystal_density_diffrn    2.029
_exptl_crystal_description       plate
_exptl_crystal_F_000             244
_exptl_crystal_size_max          0.260
_exptl_crystal_size_mid          0.240
_exptl_crystal_size_min          0.060
_refine_diff_density_max         0.399
_refine_diff_density_min         -0.387
_refine_diff_density_rms         0.094
_refine_ls_abs_structure_details
;
 Flack x determined using 370 quotients [(I+)-(I-)]/[(I+)+(I-)]
 (Parsons and Flack (2004), Acta Cryst. A60, s61).
;
_refine_ls_abs_structure_Flack   0.1(2)
_refine_ls_extinction_method     none
_refine_ls_goodness_of_fit_ref   1.008
_refine_ls_hydrogen_treatment    undef
_refine_ls_matrix_type           full
_refine_ls_number_parameters     100
_refine_ls_number_reflns         1939
_refine_ls_number_restraints     2
_refine_ls_restrained_S_all      1.007
_refine_ls_R_factor_all          0.0821
_refine_ls_R_factor_gt           0.0490
_refine_ls_shift/su_max          0.000
_refine_ls_shift/su_mean         0.000
_refine_ls_structure_factor_coef Fsqd
_refine_ls_weighting_details
;
 w=1/[\s^2^(Fo^2^)+(0.0336P)^2^]
 where P=(Fo^2^+2Fc^2^)/3
;
_refine_ls_weighting_scheme      calc
_refine_ls_wR_factor_gt          0.0855
_refine_ls_wR_factor_ref         0.1001
_reflns_Friedel_coverage         0.652
_reflns_friedel_fraction_full    0.746
_reflns_friedel_fraction_max     0.593
_reflns_number_gt                1361
_reflns_number_total             1939
_reflns_threshold_expression     'I > 2\s(I)'
_cod_data_source_file            c5ce01219h2.cif
_cod_data_source_block           C5CL5N_250K
_cod_depositor_comments
'Adding full bibliography for 7221871--7221875.cif.'
_cod_database_code               7221874
_shelx_space_group_comment
;
The symmetry employed for this shelxl refinement is uniquely defined
by the following loop, which should always be used as a source of
symmetry information in preference to the above space-group names.
They are only intended as comments.
;
_shelx_estimated_absorpt_t_min   0.6077
_shelx_estimated_absorpt_t_max   0.7461
_shelxl_version_number           2013-2
_shelx_res_file
;
TITL a14_95 in Pc
CELL 0.71073   5.3426   5.2051  15.0207  90.000 100.003  90.000
ZERR    2.00   0.0015   0.0015   0.0044   0.000   0.006   0.000
LATT -1
SYMM X, -Y, 0.5+Z
SFAC  C   N   CL
UNIT   10    2  10
TEMP -23
L.S. 12
BOND
ACTA
FMAP 2
PLAN -20
WGHT    0.033600
FVAR       0.28487
CL1   3    0.116690    0.672876    0.332217    11.00000    0.03968    0.05450 =
         0.03577   -0.00285   -0.00597   -0.00256
CL2   3    0.529466    1.100608    0.324243    11.00000    0.06236    0.04333 =
         0.03645    0.01322    0.00682    0.00007
CL3   3    0.959909    1.172838    0.491972    11.00000    0.03925    0.04027 =
         0.05309   -0.00646    0.01208   -0.01225
CL4   3    0.967980    0.817033    0.659542    11.00000    0.04192    0.05983 =
         0.03553   -0.00461   -0.00825    0.00055
CL5   3    0.534950    0.402430    0.653860    11.00000    0.05542    0.04592 =
         0.03576    0.01062    0.01048   -0.00048
C1    1    0.360286    0.722376    0.422313    11.00000    0.02581    0.03620 =
         0.02977   -0.00204    0.00077    0.00042
C2    1    0.538788    0.910728    0.417794    11.00000    0.03152    0.03247 =
         0.02679   -0.00142    0.00782    0.00158
C3    1    0.545043    0.605342    0.564087    11.00000    0.03269    0.03125 =
         0.02747    0.00042    0.00281    0.00515
C4    1    0.731816    0.943247    0.492734    11.00000    0.03352    0.02832 =
         0.03529   -0.00866    0.01003   -0.00172
C5    1    0.735210    0.784434    0.567464    11.00000    0.02841    0.03436 =
         0.02810   -0.00717    0.00496    0.00466
N1    2    0.361116    0.572995    0.493424    11.00000    0.02882    0.03207 =
         0.03210   -0.00235    0.00287   -0.00092
HKLF 4

REM  a14_95 in Pc
REM R1 =  0.0490 for    1361 Fo > 4sig(Fo)  and  0.0821 for all    1939 data
REM    100 parameters refined using      2 restraints

END

WGHT      0.0335      0.0000

REM Highest difference peak  0.399,  deepest hole -0.387,  1-sigma level  0.094
Q1    1   0.5956  0.5204  0.6027  11.00000  0.05    0.40
Q2    1   1.1355  1.3223  0.4933  11.00000  0.05    0.39
Q3    1   0.5162  0.5717  0.4912  11.00000  0.05    0.37
Q4    1   1.0713  1.2144  0.5528  11.00000  0.05    0.37
Q5    1   1.0250  1.3031  0.4377  11.00000  0.05    0.35
Q6    1   0.8438  0.6950  0.6624  11.00000  0.05    0.35
Q7    1   0.4255  0.5199  0.6319  11.00000  0.05    0.34
Q8    1   0.9964  0.7558  0.5905  11.00000  0.05    0.33
Q9    1   0.5475  0.9376  0.4964  11.00000  0.05    0.33
Q10   1   0.4494  0.8079  0.4019  11.00000  0.05    0.33
Q11   1   0.6696  1.0119  0.3610  11.00000  0.05    0.32
Q12   1   0.8442  1.0703  0.5314  11.00000  0.05    0.30
Q13   1   0.2752  0.6686  0.4722  11.00000  0.05    0.30
Q14   1  -0.0275  0.5191  0.3264  11.00000  0.05    0.30
Q15   1   0.4364  0.6807  0.5110  11.00000  0.05    0.30
Q16   1   0.1206  0.5266  0.2885  11.00000  0.05    0.29
Q17   1   1.1068  0.6878  0.6548  11.00000  0.05    0.29
Q18   1   1.2152  1.3292  0.5783  11.00000  0.05    0.29
Q19   1   0.4925  0.9832  0.3831  11.00000  0.05    0.29
Q20   1   0.5347  1.1573  0.3167  11.00000  0.05    0.29
;
_shelx_res_checksum              87495
loop_
_space_group_symop_operation_xyz
'x, y, z'
'x, -y, z+1/2'
loop_
_atom_site_label
_atom_site_type_symbol
_atom_site_fract_x
_atom_site_fract_y
_atom_site_fract_z
_atom_site_U_iso_or_equiv
_atom_site_adp_type
_atom_site_occupancy
_atom_site_site_symmetry_order
_atom_site_calc_flag
Cl1 Cl 0.1167(3) 0.6729(5) 0.33222(12) 0.0448(5) Uani 1 1 d
Cl2 Cl 0.5295(3) 1.1006(4) 0.32424(12) 0.0476(7) Uani 1 1 d
Cl3 Cl 0.9599(4) 1.1728(4) 0.49197(14) 0.0437(5) Uani 1 1 d
Cl4 Cl 0.9680(3) 0.8170(5) 0.65954(13) 0.0476(6) Uani 1 1 d
Cl5 Cl 0.5350(4) 0.4024(4) 0.65386(13) 0.0454(6) Uani 1 1 d
C1 C 0.3603(13) 0.7224(16) 0.4223(5) 0.0311(17) Uani 1 1 d
C2 C 0.5388(15) 0.9107(15) 0.4178(5) 0.0299(17) Uani 1 1 d
C3 C 0.5450(15) 0.6053(14) 0.5641(5) 0.0308(18) Uani 1 1 d
C4 C 0.7318(15) 0.9432(15) 0.4927(5) 0.0319(17) Uani 1 1 d
C5 C 0.7352(13) 0.7844(15) 0.5675(5) 0.0303(16) Uani 1 1 d
N1 N 0.3611(12) 0.5730(13) 0.4934(5) 0.0313(15) Uani 1 1 d
loop_
_atom_site_aniso_label
_atom_site_aniso_U_11
_atom_site_aniso_U_22
_atom_site_aniso_U_33
_atom_site_aniso_U_23
_atom_site_aniso_U_13
_atom_site_aniso_U_12
Cl1 0.0397(11) 0.0545(13) 0.0358(10) -0.0028(11) -0.0060(8) -0.0026(11)
Cl2 0.0624(17) 0.0433(14) 0.0364(11) 0.0132(10) 0.0068(11) 0.0001(10)
Cl3 0.0392(10) 0.0403(11) 0.0531(11) -0.0065(10) 0.0121(8) -0.0123(10)
Cl4 0.0419(13) 0.0598(15) 0.0355(10) -0.0046(12) -0.0082(9) 0.0005(12)
Cl5 0.0554(14) 0.0459(15) 0.0358(10) 0.0106(10) 0.0105(10) -0.0005(11)
C1 0.026(4) 0.036(5) 0.030(4) -0.002(3) 0.001(3) 0.000(3)
C2 0.032(4) 0.032(5) 0.027(3) -0.001(3) 0.008(3) 0.002(3)
C3 0.033(4) 0.031(5) 0.027(3) 0.000(3) 0.003(3) 0.005(3)
C4 0.034(4) 0.028(4) 0.035(4) -0.009(3) 0.010(3) -0.002(3)
C5 0.028(4) 0.034(4) 0.028(4) -0.007(3) 0.005(3) 0.005(3)
N1 0.029(4) 0.032(4) 0.032(3) -0.002(3) 0.003(3) -0.001(3)
loop_
_atom_type_symbol
_atom_type_description
_atom_type_scat_dispersion_real
_atom_type_scat_dispersion_imag
_atom_type_scat_source
C C 0.0033 0.0016 'International Tables Vol C Tables 4.2.6.8 and 6.1.1.4'
N N 0.0061 0.0033 'International Tables Vol C Tables 4.2.6.8 and 6.1.1.4'
Cl Cl 0.1484 0.1585 'International Tables Vol C Tables 4.2.6.8 and 6.1.1.4'
loop_
_geom_angle_atom_site_label_1
_geom_angle_atom_site_label_2
_geom_angle_atom_site_label_3
_geom_angle
N1 C1 C2 123.6(7)
N1 C1 Cl1 116.3(6)
C2 C1 Cl1 120.1(6)
C1 C2 C4 117.8(7)
C1 C2 Cl2 122.0(6)
C4 C2 Cl2 120.2(6)
N1 C3 C5 123.8(7)
N1 C3 Cl5 115.4(6)
C5 C3 Cl5 120.8(6)
C5 C4 C2 118.8(7)
C5 C4 Cl3 120.8(6)
C2 C4 Cl3 120.4(6)
C3 C5 C4 117.9(7)
C3 C5 Cl4 122.0(6)
C4 C5 Cl4 120.1(6)
C1 N1 C3 118.1(7)
loop_
_geom_bond_atom_site_label_1
_geom_bond_atom_site_label_2
_geom_bond_distance
Cl1 C1 1.726(7)
Cl2 C2 1.712(7)
Cl3 C4 1.708(8)
Cl4 C5 1.700(7)
Cl5 C3 1.721(8)
C1 N1 1.321(10)
C1 C2 1.378(10)
C2 C4 1.399(11)
C3 N1 1.326(10)
C3 C5 1.373(10)
C4 C5 1.392(11)
