#------------------------------------------------------------------------------
#$Date: 2019-11-17 09:41:05 +0200 (Sun, 17 Nov 2019) $
#$Revision: 229164 $
#$URL: file:///home/coder/svn-repositories/cod/cif/7/22/96/7229664.cif $
#------------------------------------------------------------------------------
#
# This file is available in the Crystallography Open Database (COD),
# http://www.crystallography.net/
#
# All data on this site have been placed in the public domain by the
# contributors.
#
data_7229664
loop_
_publ_author_name
'Bujak, Maciej'
'Podsiad\/lo, Marcin'
'Katrusiak, Andrzej'
_publ_section_title
;
 Loose crystals engineered by mismatched halogen bonds in hexachloroethane
;
_journal_issue                   3
_journal_name_full               CrystEngComm
_journal_page_first              328
_journal_paper_doi               10.1039/C7CE01980G
_journal_volume                  20
_journal_year                    2018
_chemical_formula_moiety         'C2 Cl6'
_chemical_formula_sum            'C2 Cl6'
_chemical_formula_weight         236.72
_chemical_name_systematic
; 
 Hexachloroethane 
;
_space_group_IT_number           62
_space_group_name_Hall           '-P 2ac 2n'
_space_group_name_H-M_alt        'P n m a'
_symmetry_cell_setting           orthorhombic
_symmetry_space_group_name_Hall  '-P 2ac 2n'
_symmetry_space_group_name_H-M   'P n m a'
_atom_sites_solution_primary     direct
_atom_sites_solution_secondary   difmap
_audit_creation_method           SHELXL-97
_audit_update_record
;
2017-10-27 deposited with the CCDC.
2017-12-07 downloaded from the CCDC.
;
_cell_angle_alpha                90.00
_cell_angle_beta                 90.00
_cell_angle_gamma                90.00
_cell_formula_units_Z            4
_cell_length_a                   10.618(3)
_cell_length_b                   9.5461(3)
_cell_length_c                   5.9958(2)
_cell_measurement_reflns_used    2381
_cell_measurement_temperature    295(2)
_cell_measurement_theta_max      27.77
_cell_measurement_theta_min      3.88
_cell_volume                     607.74(17)
_computing_cell_refinement
'CrysAlisPro (Rigaku Oxford Diffraction, 2015)'
_computing_data_collection
'CrysAlis Pro (Rigaku Oxford Diffraction, 2015)'
_computing_data_reduction
'CrysAlisPro (Rigaku Oxford Diffraction, 2015)'
_computing_molecular_graphics    'Mercury (Macrae at al., 2008)'
_computing_publication_material  'SHELXL-97 (Sheldrick, 2008, 2015)'
_computing_structure_refinement  'SHELXL-97 (Sheldrick, 2008, 2015)'
_computing_structure_solution    'SHELXS-97 (Sheldrick, 2008)'
_diffrn_ambient_environment      'diamond-anvil cell'
_diffrn_ambient_pressure         3190000
_diffrn_ambient_temperature      295(2)
_diffrn_measured_fraction_theta_full 0.422
_diffrn_measured_fraction_theta_max 0.422
_diffrn_measurement_device_type  'Xcalibur Eos'
_diffrn_measurement_method       '\f- and \w-scans'
_diffrn_radiation_monochromator  graphite
_diffrn_radiation_source         'fine-focus sealed tube'
_diffrn_radiation_type           MoK\a
_diffrn_radiation_wavelength     0.71073
_diffrn_reflns_av_R_equivalents  0.0315
_diffrn_reflns_av_sigmaI/netI    0.0150
_diffrn_reflns_limit_h_max       5
_diffrn_reflns_limit_h_min       -5
_diffrn_reflns_limit_k_max       12
_diffrn_reflns_limit_k_min       -12
_diffrn_reflns_limit_l_max       7
_diffrn_reflns_limit_l_min       -7
_diffrn_reflns_number            3939
_diffrn_reflns_theta_full        28.32
_diffrn_reflns_theta_max         28.32
_diffrn_reflns_theta_min         3.90
_exptl_absorpt_coefficient_mu    2.693
_exptl_absorpt_correction_T_max  1.000
_exptl_absorpt_correction_T_min  0.188
_exptl_absorpt_correction_type   multi-scan
_exptl_absorpt_process_details
;
CrysAlisPro, Rigaku Oxford Diffraction, 2015
;
_exptl_crystal_colour            colourless
_exptl_crystal_density_diffrn    2.587
_exptl_crystal_density_method    'not measured'
_exptl_crystal_description       plate
_exptl_crystal_F_000             456
_exptl_crystal_size_max          0.26
_exptl_crystal_size_mid          0.25
_exptl_crystal_size_min          0.06
_refine_diff_density_max         0.223
_refine_diff_density_min         -0.213
_refine_diff_density_rms         0.061
_refine_ls_extinction_coef       0.026(2)
_refine_ls_extinction_expression
Fc\^*\^=kFc[1+0.001xFc\^2\^\l\^3\^/sin(2\q)]\^-1/4
_refine_ls_extinction_method     SHELXL
_refine_ls_goodness_of_fit_ref   1.137
_refine_ls_matrix_type           full
_refine_ls_number_parameters     44
_refine_ls_number_reflns         337
_refine_ls_number_restraints     0
_refine_ls_restrained_S_all      1.137
_refine_ls_R_factor_all          0.0251
_refine_ls_R_factor_gt           0.0201
_refine_ls_shift/su_max          0.000
_refine_ls_shift/su_mean         0.000
_refine_ls_structure_factor_coef Fsqd
_refine_ls_weighting_details
; 
 calc w=1/[\s\^2\^(Fo\^2\^)+(0.0385P)\^2\^+0.0303P] where
 P=(Fo\^2\^+2Fc\^2\^)/3
;
_refine_ls_weighting_scheme      calc
_refine_ls_wR_factor_gt          0.0566
_refine_ls_wR_factor_ref         0.0601
_reflns_number_gt                295
_reflns_number_total             337
_reflns_threshold_expression     >2sigma(I)
_cod_data_source_file            c7ce01980g2.cif
_cod_data_source_block           HCE_295K_319GPa
_cod_depositor_comments
'Adding full bibliography for 7229662--7229668.cif.'
_cod_database_code               7229664
loop_
_symmetry_equiv_pos_as_xyz
'x, y, z'
'-x+1/2, -y, z+1/2'
'-x, y+1/2, -z'
'x+1/2, -y+1/2, -z+1/2'
'-x, -y, -z'
'x-1/2, y, -z-1/2'
'x, -y-1/2, z'
'-x-1/2, y-1/2, z-1/2'
loop_
_atom_site_label
_atom_site_type_symbol
_atom_site_fract_x
_atom_site_fract_y
_atom_site_fract_z
_atom_site_U_iso_or_equiv
_atom_site_adp_type
_atom_site_occupancy
_atom_site_symmetry_multiplicity
_atom_site_calc_flag
_atom_site_refinement_flags
C1 C 0.1067(7) 0.2500 0.2177(4) 0.013(3) Uani 1 2 d S
C2 C 0.1436(7) 0.2500 -0.0340(4) 0.014(3) Uani 1 2 d S
Cl1 Cl 0.24373(16) 0.2500 0.38151(12) 0.0193(10) Uani 1 2 d S
Cl2 Cl 0.01792(12) 0.40101(6) 0.27620(9) 0.0211(8) Uani 1 1 d .
Cl3 Cl 0.00368(17) 0.2500 -0.19565(12) 0.0208(11) Uani 1 2 d S
Cl4 Cl 0.23250(12) 0.40005(7) -0.09476(9) 0.0215(8) Uani 1 1 d .
loop_
_atom_site_aniso_label
_atom_site_aniso_U_11
_atom_site_aniso_U_22
_atom_site_aniso_U_33
_atom_site_aniso_U_23
_atom_site_aniso_U_13
_atom_site_aniso_U_12
C1 0.012(11) 0.0120(12) 0.0162(15) 0.000 0.000(2) 0.000
C2 0.013(11) 0.0119(13) 0.0178(15) 0.000 -0.003(2) 0.000
Cl1 0.018(3) 0.0224(4) 0.0171(5) 0.000 -0.0051(5) 0.000
Cl2 0.026(2) 0.0154(4) 0.0218(4) -0.00379(18) 0.0013(4) 0.0060(4)
Cl3 0.022(3) 0.0234(5) 0.0168(5) 0.000 -0.0055(5) 0.000
Cl4 0.026(2) 0.0172(3) 0.0209(4) 0.00335(17) 0.0033(3) -0.0065(4)
loop_
_atom_type_symbol
_atom_type_description
_atom_type_scat_dispersion_real
_atom_type_scat_dispersion_imag
_atom_type_scat_source
C C 0.0033 0.0016 'International Tables Vol C Tables 4.2.6.8 and 6.1.1.4'
Cl Cl 0.1484 0.1585 'International Tables Vol C Tables 4.2.6.8 and 6.1.1.4'
loop_
_geom_angle_atom_site_label_1
_geom_angle_atom_site_label_2
_geom_angle_atom_site_label_3
_geom_angle
_geom_angle_site_symmetry_1
_geom_angle_site_symmetry_3
C2 C1 Cl1 109.5(5) . .
C2 C1 Cl2 109.15(19) . 7_565
Cl1 C1 Cl2 109.44(14) . 7_565
C2 C1 Cl2 109.15(19) . .
Cl1 C1 Cl2 109.44(14) . .
Cl2 C1 Cl2 110.2(4) 7_565 .
C1 C2 Cl4 109.6(2) . .
C1 C2 Cl4 109.6(2) . 7_565
Cl4 C2 Cl4 109.6(4) . 7_565
C1 C2 Cl3 108.5(5) . .
Cl4 C2 Cl3 109.71(14) . .
Cl4 C2 Cl3 109.71(14) 7_565 .
loop_
_geom_bond_atom_site_label_1
_geom_bond_atom_site_label_2
_geom_bond_distance
_geom_bond_site_symmetry_2
C1 C2 1.559(5) .
C1 Cl1 1.755(7) .
C1 Cl2 1.758(4) 7_565
C1 Cl2 1.758(4) .
C2 Cl4 1.753(4) .
C2 Cl4 1.753(4) 7_565
C2 Cl3 1.774(7) .
loop_
_geom_torsion_atom_site_label_1
_geom_torsion_atom_site_label_2
_geom_torsion_atom_site_label_3
_geom_torsion_atom_site_label_4
_geom_torsion
_geom_torsion_site_symmetry_1
_geom_torsion_site_symmetry_4
Cl1 C1 C2 Cl4 -60.2(3) . .
Cl2 C1 C2 Cl4 -179.9(3) 7_565 .
Cl2 C1 C2 Cl4 59.6(5) . .
Cl1 C1 C2 Cl4 60.2(3) . 7_565
Cl2 C1 C2 Cl4 -59.6(5) 7_565 7_565
Cl2 C1 C2 Cl4 179.9(3) . 7_565
Cl1 C1 C2 Cl3 180.0 . .
Cl2 C1 C2 Cl3 60.2(3) 7_565 .
Cl2 C1 C2 Cl3 -60.2(3) . .
