#------------------------------------------------------------------------------
#$Date: 2019-11-17 09:41:05 +0200 (Sun, 17 Nov 2019) $
#$Revision: 229164 $
#$URL: file:///home/coder/svn-repositories/cod/cif/7/22/96/7229668.cif $
#------------------------------------------------------------------------------
#
# This file is available in the Crystallography Open Database (COD),
# http://www.crystallography.net/
#
# All data on this site have been placed in the public domain by the
# contributors.
#
data_7229668
loop_
_publ_author_name
'Bujak, Maciej'
'Podsiad\/lo, Marcin'
'Katrusiak, Andrzej'
_publ_section_title
;
 Loose crystals engineered by mismatched halogen bonds in hexachloroethane
;
_journal_issue                   3
_journal_name_full               CrystEngComm
_journal_page_first              328
_journal_paper_doi               10.1039/C7CE01980G
_journal_volume                  20
_journal_year                    2018
_chemical_formula_moiety         'C2 Cl6'
_chemical_formula_sum            'C2 Cl6'
_chemical_formula_weight         236.72
_chemical_name_systematic
; 
 Hexachloroethane 
;
_space_group_IT_number           62
_space_group_name_Hall           '-P 2ac 2n'
_space_group_name_H-M_alt        'P n m a'
_symmetry_cell_setting           orthorhombic
_symmetry_space_group_name_Hall  '-P 2ac 2n'
_symmetry_space_group_name_H-M   'P n m a'
_atom_sites_solution_primary     direct
_atom_sites_solution_secondary   difmap
_audit_creation_method           SHELXL-97
_audit_update_record
;
2017-10-27 deposited with the CCDC.
2017-12-07 downloaded from the CCDC.
;
_cell_angle_alpha                90.00
_cell_angle_beta                 90.00
_cell_angle_gamma                90.00
_cell_formula_units_Z            4
_cell_length_a                   11.2254(2)
_cell_length_b                   10.0086(2)
_cell_length_c                   6.33713(14)
_cell_measurement_reflns_used    4225
_cell_measurement_temperature    100.0(1)
_cell_measurement_theta_max      29.47
_cell_measurement_theta_min      3.21
_cell_volume                     711.98(2)
_computing_cell_refinement       'CrysAlisPro (Oxford Diffraction Ltd., 2010)'
_computing_data_collection
'CrysAlis CCD (Oxford Diffraction Ltd., 2010)'
_computing_data_reduction        'CrysAlisPro (Oxford Diffraction Ltd., 2010)'
_computing_molecular_graphics    'Mercury (Macrae at al., 2008)'
_computing_publication_material  'SHELXL-97 (Sheldrick, 2008, 2015)'
_computing_structure_refinement  'SHELXL-97 (Sheldrick, 2008, 2015)'
_computing_structure_solution    'SHELXS-97 (Sheldrick, 2008)'
_diffrn_ambient_temperature      100.0(1)
_diffrn_measured_fraction_theta_full 0.982
_diffrn_measured_fraction_theta_max 0.982
_diffrn_measurement_device_type  Xcalibur
_diffrn_measurement_method       \w-scans
_diffrn_radiation_monochromator  graphite
_diffrn_radiation_source         'fine-focus sealed tube'
_diffrn_radiation_type           MoK\a
_diffrn_radiation_wavelength     0.71073
_diffrn_reflns_av_R_equivalents  0.0110
_diffrn_reflns_av_sigmaI/netI    0.0071
_diffrn_reflns_limit_h_max       14
_diffrn_reflns_limit_h_min       -15
_diffrn_reflns_limit_k_max       13
_diffrn_reflns_limit_k_min       -13
_diffrn_reflns_limit_l_max       8
_diffrn_reflns_limit_l_min       -7
_diffrn_reflns_number            5308
_diffrn_reflns_theta_full        28.99
_diffrn_reflns_theta_max         28.99
_diffrn_reflns_theta_min         3.69
_exptl_absorpt_coefficient_mu    2.298
_exptl_absorpt_correction_T_max  1.000
_exptl_absorpt_correction_T_min  0.771
_exptl_absorpt_correction_type   multi-scan
_exptl_absorpt_process_details
;
CrysAlisPro, Oxford Diffraction Ltd., 2010
;
_exptl_crystal_colour            colourless
_exptl_crystal_density_diffrn    2.208
_exptl_crystal_density_method    'not measured'
_exptl_crystal_description       irregular
_exptl_crystal_F_000             456
_exptl_crystal_size_max          0.33
_exptl_crystal_size_mid          0.26
_exptl_crystal_size_min          0.22
_refine_diff_density_max         0.506
_refine_diff_density_min         -0.425
_refine_diff_density_rms         0.103
_refine_ls_extinction_coef       0.0038(6)
_refine_ls_extinction_expression
Fc\^*\^=kFc[1+0.001xFc\^2\^\l\^3\^/sin(2\q)]\^-1/4
_refine_ls_extinction_method     SHELXL
_refine_ls_goodness_of_fit_ref   1.397
_refine_ls_matrix_type           full
_refine_ls_number_parameters     44
_refine_ls_number_reflns         981
_refine_ls_number_restraints     0
_refine_ls_restrained_S_all      1.397
_refine_ls_R_factor_all          0.0155
_refine_ls_R_factor_gt           0.0128
_refine_ls_shift/su_max          0.000
_refine_ls_shift/su_mean         0.000
_refine_ls_structure_factor_coef Fsqd
_refine_ls_weighting_details
;
 calc w=1/[\s\^2\^(Fo\^2\^)+(0.0171P)\^2\^+0.2182P] where
 P=(Fo\^2\^+2Fc\^2\^)/3
;
_refine_ls_weighting_scheme      calc
_refine_ls_wR_factor_gt          0.0331
_refine_ls_wR_factor_ref         0.0442
_reflns_number_gt                909
_reflns_number_total             981
_reflns_threshold_expression     >2sigma(I)
_cod_data_source_file            c7ce01980g2.cif
_cod_data_source_block           HCE_100K_01MPa
_cod_depositor_comments
'Adding full bibliography for 7229662--7229668.cif.'
_cod_database_code               7229668
loop_
_symmetry_equiv_pos_as_xyz
'x, y, z'
'-x+1/2, -y, z+1/2'
'-x, y+1/2, -z'
'x+1/2, -y+1/2, -z+1/2'
'-x, -y, -z'
'x-1/2, y, -z-1/2'
'x, -y-1/2, z'
'-x-1/2, y-1/2, z-1/2'
loop_
_atom_site_label
_atom_site_type_symbol
_atom_site_fract_x
_atom_site_fract_y
_atom_site_fract_z
_atom_site_U_iso_or_equiv
_atom_site_adp_type
_atom_site_occupancy
_atom_site_symmetry_multiplicity
_atom_site_calc_flag
_atom_site_refinement_flags
C1 C 0.10928(14) 0.2500 0.2139(3) 0.0120(3) Uani 1 2 d S
C2 C 0.14165(15) 0.2500 -0.0274(3) 0.0131(3) Uani 1 2 d S
Cl1 Cl 0.24121(4) 0.2500 0.36552(6) 0.01632(11) Uani 1 2 d S
Cl2 Cl 0.02566(3) 0.39434(3) 0.27428(5) 0.01683(9) Uani 1 1 d .
Cl3 Cl 0.00899(4) 0.2500 -0.17869(7) 0.01788(11) Uani 1 2 d S
Cl4 Cl 0.22567(3) 0.39389(3) -0.08916(5) 0.01876(10) Uani 1 1 d .
loop_
_atom_site_aniso_label
_atom_site_aniso_U_11
_atom_site_aniso_U_22
_atom_site_aniso_U_33
_atom_site_aniso_U_23
_atom_site_aniso_U_13
_atom_site_aniso_U_12
C1 0.0114(7) 0.0106(7) 0.0138(7) 0.000 -0.0001(6) 0.000
C2 0.0140(7) 0.0116(7) 0.0138(7) 0.000 0.0008(6) 0.000
Cl1 0.01332(19) 0.0199(2) 0.0157(2) 0.000 -0.00358(14) 0.000
Cl2 0.01667(15) 0.01424(16) 0.01959(15) -0.00317(10) 0.00131(10) 0.00413(10)
Cl3 0.0184(2) 0.0196(2) 0.0156(2) 0.000 -0.00559(15) 0.000
Cl4 0.02129(17) 0.01604(16) 0.01894(16) 0.00331(10) 0.00289(11) -0.00558(11)
loop_
_atom_type_symbol
_atom_type_description
_atom_type_scat_dispersion_real
_atom_type_scat_dispersion_imag
_atom_type_scat_source
C C 0.0033 0.0016 'International Tables Vol C Tables 4.2.6.8 and 6.1.1.4'
Cl Cl 0.1484 0.1585 'International Tables Vol C Tables 4.2.6.8 and 6.1.1.4'
loop_
_geom_angle_atom_site_label_1
_geom_angle_atom_site_label_2
_geom_angle_atom_site_label_3
_geom_angle
_geom_angle_site_symmetry_1
_geom_angle_site_symmetry_3
C2 C1 Cl2 109.49(7) . 7_565
C2 C1 Cl2 109.49(7) . .
Cl2 C1 Cl2 109.89(9) 7_565 .
C2 C1 Cl1 109.61(11) . .
Cl2 C1 Cl1 109.17(6) 7_565 .
Cl2 C1 Cl1 109.17(6) . .
C1 C2 Cl4 109.82(7) . .
C1 C2 Cl4 109.82(7) . 7_565
Cl4 C2 Cl4 109.33(9) . 7_565
C1 C2 Cl3 109.40(11) . .
Cl4 C2 Cl3 109.23(6) . .
Cl4 C2 Cl3 109.23(6) 7_565 .
loop_
_geom_bond_atom_site_label_1
_geom_bond_atom_site_label_2
_geom_bond_distance
_geom_bond_site_symmetry_2
C1 C2 1.572(2) .
C1 Cl2 1.7648(10) 7_565
C1 Cl2 1.7648(10) .
C1 Cl1 1.7651(17) .
C2 Cl4 1.7653(10) .
C2 Cl4 1.7653(10) 7_565
C2 Cl3 1.7711(17) .
loop_
_geom_torsion_atom_site_label_1
_geom_torsion_atom_site_label_2
_geom_torsion_atom_site_label_3
_geom_torsion_atom_site_label_4
_geom_torsion
_geom_torsion_site_symmetry_1
_geom_torsion_site_symmetry_4
Cl2 C1 C2 Cl4 -179.85(7) 7_565 .
Cl2 C1 C2 Cl4 59.60(12) . .
Cl1 C1 C2 Cl4 -60.13(7) . .
Cl2 C1 C2 Cl4 -59.60(12) 7_565 7_565
Cl2 C1 C2 Cl4 179.85(7) . 7_565
Cl1 C1 C2 Cl4 60.13(7) . 7_565
Cl2 C1 C2 Cl3 60.27(7) 7_565 .
Cl2 C1 C2 Cl3 -60.27(7) . .
Cl1 C1 C2 Cl3 180.0 . .
