#------------------------------------------------------------------------------
#$Date: 2019-11-07 21:59:08 +0200 (Thu, 07 Nov 2019) $
#$Revision: 223670 $
#$URL: file:///home/coder/svn-repositories/cod/cif/7/23/23/7232397.cif $
#------------------------------------------------------------------------------
#
# This file is available in the Crystallography Open Database (COD),
# http://www.crystallography.net/
#
# All data on this site have been placed in the public domain by the
# contributors.
#
data_7232397
loop_
_publ_author_name
'Fanetti, Samuele'
'Nobrega, Marcelo M.'
'Dziubek, Kamil'
'Citroni, Margherita'
'Sella, Andrea'
'McMillan, Paul F.'
'Hanfland, Michael'
'Bini, Roberto'
_publ_section_title
;
 Structure and reactivity of 2,4,6-tricyano-1,3,5-triazine under
 high-pressure conditions
;
_journal_issue                   30
_journal_name_full               CrystEngComm
_journal_page_first              4493
_journal_paper_doi               10.1039/C8CE02154F
_journal_volume                  21
_journal_year                    2019
_chemical_formula_moiety         'C6 N6'
_chemical_formula_sum            'C6 N6'
_chemical_formula_weight         156.12
_chemical_melting_point          393.15
_chemical_name_common            2,4,6-tricyano-1,3,5-triazine
_chemical_name_systematic        1,3,5-triazine-2,4,6-tricarbonitrile
_chemical_properties_physical    Moisture-sensitive
_space_group_crystal_system      monoclinic
_space_group_IT_number           4
_space_group_name_Hall           'P 2yb'
_space_group_name_H-M_alt        'P 1 21 1'
_symmetry_space_group_name_Hall  'P 2yb'
_symmetry_space_group_name_H-M   'P 1 21 1'
_audit_creation_method           'SHELXL-2016/6 (Sheldrick, 2016)'
_audit_update_record
;
2019-02-08 deposited with the CCDC.    2019-02-20 downloaded from the CCDC.
;
_cell_angle_alpha                90
_cell_angle_beta                 90.82(9)
_cell_angle_gamma                90
_cell_formula_units_Z            4
_cell_length_a                   8.455(3)
_cell_length_b                   9.0629(13)
_cell_length_c                   9.75(2)
_cell_measurement_reflns_used    196
_cell_measurement_temperature    293(2)
_cell_measurement_theta_max      17.4250
_cell_measurement_theta_min      2.2460
_cell_volume                     747.0(16)
_computing_cell_refinement       'CrysAlisPro (Agilent Technologies, 2018)'
_computing_data_reduction        'CrysAlisPro (Agilent Technologies, 2018)'
_computing_structure_refinement  'SHELXL-2016/6 (Sheldrick, 2016)'
_computing_structure_solution    'SHELXT-2015 (Sheldrick, 2015)'
_diffrn_ambient_pressure         101.325
_diffrn_ambient_temperature      293(2)
_diffrn_detector_area_resol_mean 7
_diffrn_measured_fraction_theta_full 0.341
_diffrn_measured_fraction_theta_max 0.188
_diffrn_measurement_device_type  'ID15B beamline, ESRF'
_diffrn_measurement_method       'omega scans'
_diffrn_radiation_type           synchrotron
_diffrn_radiation_wavelength     0.41112
_diffrn_reflns_av_R_equivalents  0.0286
_diffrn_reflns_av_unetI/netI     0.0433
_diffrn_reflns_Laue_measured_fraction_full 0.341
_diffrn_reflns_Laue_measured_fraction_max 0.188
_diffrn_reflns_limit_h_max       13
_diffrn_reflns_limit_h_min       -13
_diffrn_reflns_limit_k_max       14
_diffrn_reflns_limit_k_min       -14
_diffrn_reflns_limit_l_max       6
_diffrn_reflns_limit_l_min       -7
_diffrn_reflns_number            1472
_diffrn_reflns_point_group_measured_fraction_full 0.326
_diffrn_reflns_point_group_measured_fraction_max 0.164
_diffrn_reflns_theta_full        14.281
_diffrn_reflns_theta_max         19.848
_diffrn_reflns_theta_min         2.246
_diffrn_source                   synchrotron
_exptl_absorpt_coefficient_mu    0.040
_exptl_absorpt_correction_T_max  1.00000
_exptl_absorpt_correction_T_min  0.38552
_exptl_absorpt_correction_type   multi-scan
_exptl_absorpt_process_details
;
CrysAlisPro 1.171.39.46 (Rigaku Oxford Diffraction, 2018)
Empirical absorption correction using spherical harmonics,
 implemented in SCALE3 ABSPACK scaling algorithm.
;
_exptl_crystal_colour            colourless
_exptl_crystal_density_diffrn    1.388
_exptl_crystal_description       block
_exptl_crystal_F_000             312
_exptl_crystal_recrystallization_method Sublimation
_exptl_crystal_size_max          0.015
_exptl_crystal_size_mid          0.015
_exptl_crystal_size_min          0.015
_refine_diff_density_max         0.093
_refine_diff_density_min         -0.106
_refine_diff_density_rms         0.026
_refine_ls_abs_structure_details
;
 Flack x determined using 282 quotients [(I+)-(I-)]/[(I+)+(I-)]
 (Parsons, Flack and Wagner, Acta Cryst. B69 (2013) 249-259).
;
_refine_ls_abs_structure_Flack   -0.2(10)
_refine_ls_extinction_method     none
_refine_ls_goodness_of_fit_ref   1.165
_refine_ls_hydrogen_treatment    undef
_refine_ls_matrix_type           full
_refine_ls_number_parameters     217
_refine_ls_number_reflns         1157
_refine_ls_number_restraints     145
_refine_ls_restrained_S_all      1.108
_refine_ls_R_factor_all          0.0682
_refine_ls_R_factor_gt           0.0493
_refine_ls_shift/su_max          0.000
_refine_ls_shift/su_mean         0.000
_refine_ls_structure_factor_coef Fsqd
_refine_ls_weighting_details
'w=1/[\s^2^(Fo^2^)+(0.0669P)^2^+0.0444P] where P=(Fo^2^+2Fc^2^)/3'
_refine_ls_weighting_scheme      calc
_refine_ls_wR_factor_gt          0.1218
_refine_ls_wR_factor_ref         0.1554
_reflns_Friedel_coverage         0.664
_reflns_Friedel_fraction_full    0.309
_reflns_Friedel_fraction_max     0.138
_reflns_number_gt                801
_reflns_number_total             1155
_reflns_threshold_expression     'I > 2\s(I)'
_cod_data_source_file            c8ce02154f1.cif
_cod_data_source_block           TCT_I_0_0001_GPa
_cod_depositor_comments
'Adding full bibliography for 7232397--7232407.cif.'
_cod_database_code               7232397
_shelx_shelxl_version_number     2016/6
_shelx_space_group_comment
;
The symmetry employed for this shelxl refinement is uniquely defined
by the following loop, which should always be used as a source of
symmetry information in preference to the above space-group names.
They are only intended as comments.
;
_oxdiff_exptl_absorpt_empirical_full_min 0.784
_oxdiff_exptl_absorpt_empirical_full_max 2.028
_oxdiff_exptl_absorpt_empirical_details
;
Empirical correction (ABSPACK) includes:
- Absorption correction using spherical harmonics
- Frame scaling
;
_shelx_res_file
;

    tct_001.res created by SHELXL-2014/7

TITL tct_001 in P2(1)
CELL 0.41112 8.455241 9.062897 9.752988 90 90.818 90
ZERR 4 0.002534 0.001345 0.022297 0 0.0922 0
LATT -1
SYMM -X,0.5+Y,-Z
SFAC C N
DISP C -0.0001 0.0005 1.07
DISP N 0.0004 0.001 2.23
UNIT 24 24
ISOR 0.02 0.02
ACTA

L.S. 99

OMIT -1 -3 -1

WGHT    0.066900    0.044400
FVAR      13.45944
C1    1    0.508022    0.774000    0.811494    11.00000    0.07567    0.05412 =
         0.06111    0.00237    0.00736    0.00191
C2    1    0.486525    0.920490    0.633493    11.00000    0.06991    0.06775 =
         0.04781    0.00908   -0.00287   -0.00426
C3    1    0.283142    0.890841    0.766080    11.00000    0.07959    0.05651 =
         0.07332    0.00169    0.01538    0.00959
C4    1    0.120967    0.925020    0.802691    11.00000    0.07779    0.07427 =
         0.08615   -0.00910    0.00449    0.00676
C5    1    0.601722    0.673611    0.889492    11.00000    0.08450    0.05658 =
         0.05452    0.00563    0.00420    0.01263
C6    1    0.552721    0.987734    0.509071    11.00000    0.08257    0.09991 =
         0.08141    0.03148    0.00703    0.00484
N1    2    0.360916    0.800594    0.853372    11.00000    0.06753    0.05635 =
         0.06299    0.00660    0.00575    0.00731
N2    2    0.578220    0.828452    0.702260    11.00000    0.07272    0.06343 =
         0.08591   -0.00123    0.01259   -0.00278
N3    2    0.338367    0.954073    0.657094    11.00000    0.06586    0.06759 =
         0.04327    0.01127   -0.01089    0.00532
N4    2   -0.008265    0.953617    0.819921    11.00000    0.08838    0.13631 =
         0.11250    0.00657    0.01900    0.02217
N5    2    0.681321    0.593641    0.949925    11.00000    0.09905    0.08544 =
         0.08848   -0.00329   -0.00230    0.01621
N6    2    0.605816    1.047137    0.416567    11.00000    0.10387    0.14834 =
         0.10030    0.03068    0.01380    0.00922
C7    1    1.076365    1.072909    0.347505    11.00000    0.07562    0.05549 =
         0.07994   -0.00589    0.01638   -0.00107
C8    1    1.170289    0.874536    0.240662    11.00000    0.06661    0.05251 =
         0.07688   -0.00638   -0.00570    0.00493
C9    1    0.935126    0.964658    0.178813    11.00000    0.07423    0.05521 =
         0.07578   -0.00954    0.00982   -0.00229
C10   1    0.794505    0.956769    0.103483    11.00000    0.06171    0.06797 =
         0.06398   -0.00727   -0.02691    0.01125
C11   1    1.089734    1.184982    0.451463    11.00000    0.07316    0.07675 =
         0.07552   -0.00539    0.00586   -0.00307
C12   1    1.294790    0.768572    0.224556    11.00000    0.08750    0.07150 =
         0.07546   -0.01058   -0.00412    0.01678
N7    2    0.945198    1.077636    0.267705    11.00000    0.06151    0.05884 =
         0.05529    0.00377   -0.00430    0.00016
N8    2    1.194779    0.975668    0.340367    11.00000    0.06965    0.06482 =
         0.11214   -0.00036    0.01675    0.00225
N9    2    1.044021    0.861854    0.159987    11.00000    0.07092    0.05197 =
         0.05828   -0.00491   -0.00707    0.00648
N10   2    0.679587    0.946131    0.043083    11.00000    0.09186    0.09338 =
         0.11675   -0.02277   -0.02084    0.01364
N11   2    1.092522    1.274970    0.539080    11.00000    0.10782    0.10039 =
         0.09183   -0.03217    0.00671   -0.00050
N12   2    1.396420    0.685065    0.219008    11.00000    0.11294    0.09096 =
         0.14227   -0.00792   -0.00057    0.03093
HKLF 4

REM  tct_001 in P2(1)
REM R1 =  0.0493 for     803 Fo > 4sig(Fo)  and  0.0682 for all    1157 data
REM    217 parameters refined using    145 restraints

END

WGHT      0.0669      0.0444

REM Highest difference peak  0.093,  deepest hole -0.106,  1-sigma level  0.026
Q1    1   1.3039  1.1268  0.4433  11.00000  0.05    0.09
Q2    1   0.2855  0.6453  0.8772  11.00000  0.05    0.09
Q3    1   1.5194  0.6207  0.2170  11.00000  0.05    0.09
Q4    1   1.1930  1.2028  0.2629  11.00000  0.05    0.09
Q5    1   0.2191  0.7542  0.5396  11.00000  0.05    0.09
Q6    1   1.5049  0.8034  0.2149  11.00000  0.05    0.09
Q7    1   0.7908  1.1599 -0.0048  11.00000  0.05    0.08
Q8    1   0.9555  1.1605  0.5922  11.00000  0.05    0.08
Q9    1  -0.0008  1.1158  0.7103  11.00000  0.05    0.08
Q10   1   1.0468  0.7863  0.2819  11.00000  0.05    0.08
Q11   1   0.2597  0.7052  0.6963  11.00000  0.05    0.08
Q12   1   1.1995  0.5991  0.1165  11.00000  0.05    0.08
Q13   1   0.7670  0.7649  0.8934  11.00000  0.05    0.07
Q14   1  -0.1312  0.7819  0.9291  11.00000  0.05    0.07
Q15   1   0.4371  0.6587  0.7912  11.00000  0.05    0.07
Q16   1   0.0182  1.1066  0.7581  11.00000  0.05    0.07
Q17   1   0.9763  1.1410  0.6402  11.00000  0.05    0.07
Q18   1   0.8672  1.1679  0.5072  11.00000  0.05    0.07
Q19   1   0.8047  1.1517  0.2046  11.00000  0.05    0.07
Q20   1   0.8911  1.2359  0.4222  11.00000  0.05    0.07
;
_shelx_res_checksum              71860
loop_
_space_group_symop_operation_xyz
'x, y, z'
'-x, y+1/2, -z'
loop_
_atom_site_label
_atom_site_type_symbol
_atom_site_fract_x
_atom_site_fract_y
_atom_site_fract_z
_atom_site_U_iso_or_equiv
_atom_site_adp_type
_atom_site_occupancy
_atom_site_site_symmetry_order
_atom_site_calc_flag
_atom_site_refinement_flags_adp
C1 C 0.5080(13) 0.7740(7) 0.811(3) 0.064(10) Uani 1 1 d U
C2 C 0.4865(13) 0.9205(9) 0.633(3) 0.062(10) Uani 1 1 d U
C3 C 0.2831(14) 0.8908(8) 0.766(3) 0.070(10) Uani 1 1 d U
C4 C 0.1210(13) 0.9250(10) 0.803(3) 0.079(10) Uani 1 1 d U
C5 C 0.6017(14) 0.6736(8) 0.889(3) 0.065(10) Uani 1 1 d U
C6 C 0.5527(16) 0.9877(12) 0.509(3) 0.088(11) Uani 1 1 d U
N1 N 0.3609(10) 0.8006(6) 0.853(2) 0.062(9) Uani 1 1 d U
N2 N 0.5782(10) 0.8285(7) 0.702(2) 0.074(9) Uani 1 1 d U
N3 N 0.3384(10) 0.9541(7) 0.657(2) 0.059(10) Uani 1 1 d U
N4 N -0.0083(15) 0.9536(14) 0.820(3) 0.112(11) Uani 1 1 d U
N5 N 0.6813(14) 0.5936(10) 0.950(3) 0.091(10) Uani 1 1 d U
N6 N 0.6058(18) 1.0471(15) 0.417(4) 0.117(12) Uani 1 1 d U
C7 C 1.0764(13) 1.0729(8) 0.348(2) 0.070(10) Uani 1 1 d U
C8 C 1.1703(13) 0.8745(7) 0.241(3) 0.065(10) Uani 1 1 d U
C9 C 0.9351(12) 0.9647(7) 0.179(2) 0.068(10) Uani 1 1 d U
C10 C 0.7945(14) 0.9568(9) 0.103(3) 0.065(10) Uani 1 1 d U
C11 C 1.0897(14) 1.1850(10) 0.451(3) 0.075(10) Uani 1 1 d U
C12 C 1.2948(16) 0.7686(9) 0.225(3) 0.078(11) Uani 1 1 d U
N7 N 0.9452(10) 1.0776(6) 0.2677(19) 0.059(9) Uani 1 1 d U
N8 N 1.1948(10) 0.9757(6) 0.340(2) 0.082(10) Uani 1 1 d U
N9 N 1.0440(11) 0.8619(6) 0.160(2) 0.060(9) Uani 1 1 d U
N10 N 0.6796(15) 0.9461(11) 0.043(3) 0.101(11) Uani 1 1 d U
N11 N 1.0925(17) 1.2750(12) 0.539(3) 0.100(11) Uani 1 1 d U
N12 N 1.3964(15) 0.6851(10) 0.219(3) 0.115(11) Uani 1 1 d U
loop_
_atom_site_aniso_label
_atom_site_aniso_U_11
_atom_site_aniso_U_22
_atom_site_aniso_U_33
_atom_site_aniso_U_23
_atom_site_aniso_U_13
_atom_site_aniso_U_12
C1 0.076(6) 0.054(3) 0.06(3) 0.002(6) 0.007(11) 0.002(3)
C2 0.070(6) 0.068(4) 0.05(3) 0.009(8) -0.003(12) -0.004(4)
C3 0.080(6) 0.057(3) 0.07(3) 0.002(6) 0.015(12) 0.010(4)
C4 0.078(6) 0.074(4) 0.09(3) -0.009(8) 0.004(12) 0.007(4)
C5 0.085(7) 0.057(3) 0.05(3) 0.006(6) 0.004(12) 0.013(4)
C6 0.083(7) 0.100(6) 0.08(3) 0.031(11) 0.007(14) 0.005(5)
N1 0.068(5) 0.056(3) 0.06(3) 0.007(5) 0.006(10) 0.007(3)
N2 0.073(5) 0.063(3) 0.09(3) -0.001(6) 0.013(10) -0.003(3)
N3 0.066(5) 0.068(3) 0.04(3) 0.011(6) -0.011(11) 0.005(3)
N4 0.088(6) 0.136(7) 0.11(3) 0.007(11) 0.019(13) 0.022(6)
N5 0.099(7) 0.085(4) 0.09(3) -0.003(9) -0.002(13) 0.016(5)
N6 0.104(9) 0.148(8) 0.10(3) 0.031(14) 0.014(15) 0.009(7)
C7 0.076(6) 0.055(3) 0.08(3) -0.006(7) 0.016(12) -0.001(4)
C8 0.067(6) 0.053(3) 0.08(3) -0.006(6) -0.006(11) 0.005(3)
C9 0.074(6) 0.055(3) 0.08(3) -0.010(7) 0.010(11) -0.002(3)
C10 0.062(6) 0.068(4) 0.06(3) -0.007(7) -0.027(12) 0.011(4)
C11 0.073(6) 0.077(5) 0.08(3) -0.005(9) 0.006(12) -0.003(4)
C12 0.088(7) 0.071(4) 0.08(3) -0.011(8) -0.004(12) 0.017(4)
N7 0.062(5) 0.059(3) 0.06(3) 0.004(6) -0.004(10) 0.000(3)
N8 0.070(5) 0.065(3) 0.11(3) 0.000(6) 0.017(11) 0.002(3)
N9 0.071(5) 0.052(3) 0.06(3) -0.005(5) -0.007(11) 0.006(3)
N10 0.092(7) 0.093(5) 0.12(3) -0.023(10) -0.021(14) 0.014(5)
N11 0.108(8) 0.100(5) 0.09(3) -0.032(10) 0.007(14) -0.001(5)
N12 0.113(8) 0.091(5) 0.14(3) -0.008(9) -0.001(14) 0.031(5)
loop_
_atom_type_symbol
_atom_type_description
_atom_type_scat_dispersion_real
_atom_type_scat_dispersion_imag
_atom_type_scat_source
C C -0.0001 0.0005 'International Tables Vol C Tables 4.2.6.8 and 6.1.1.4'
N N 0.0004 0.0010 'International Tables Vol C Tables 4.2.6.8 and 6.1.1.4'
loop_
_geom_angle_atom_site_label_1
_geom_angle_atom_site_label_2
_geom_angle_atom_site_label_3
_geom_angle
N2 C1 N1 127.5(17)
N2 C1 C5 114.7(8)
N1 C1 C5 117.8(15)
N3 C2 N2 127.9(15)
N3 C2 C6 115.0(16)
N2 C2 C6 117.0(9)
N3 C3 N1 127.4(8)
N3 C3 C4 117.2(17)
N1 C3 C4 115.3(16)
N4 C4 C3 174(3)
N5 C5 C1 177.9(12)
N6 C6 C2 176(2)
C1 N1 C3 111.4(14)
C2 N2 C1 112.3(9)
C3 N3 C2 113.3(15)
N8 C7 N7 127.0(16)
N8 C7 C11 116.8(19)
N7 C7 C11 116.2(10)
N9 C8 N8 127.0(8)
N9 C8 C12 117.6(18)
N8 C8 C12 115(2)
N9 C9 N7 126.0(18)
N9 C9 C10 118.8(15)
N7 C9 C10 115.2(9)
N10 C10 C9 178.0(13)
N11 C11 C7 176.3(10)
N12 C12 C8 176(3)
C9 N7 C7 113.1(9)
C7 N8 C8 112.2(17)
C8 N9 C9 114.4(15)
loop_
_geom_bond_atom_site_label_1
_geom_bond_atom_site_label_2
_geom_bond_distance
C1 N2 1.32(2)
C1 N1 1.337(9)
C1 C5 1.42(2)
C2 N3 1.313(10)
C2 N2 1.32(2)
C2 C6 1.48(3)
C3 N3 1.30(2)
C3 N1 1.35(2)
C3 C4 1.455(10)
C4 N4 1.138(12)
C5 N5 1.15(2)
C6 N6 1.15(3)
C7 N8 1.336(11)
C7 N7 1.35(2)
C7 C11 1.44(3)
C8 N9 1.32(3)
C8 N8 1.35(3)
C8 C12 1.435(12)
C9 N9 1.325(9)
C9 N7 1.34(2)
C9 C10 1.39(3)
C10 N10 1.13(3)
C11 N11 1.18(3)
C12 N12 1.147(13)
