#------------------------------------------------------------------------------
#$Date: 2019-11-07 21:59:08 +0200 (Thu, 07 Nov 2019) $
#$Revision: 223670 $
#$URL: file:///home/coder/svn-repositories/cod/cif/7/23/24/7232402.cif $
#------------------------------------------------------------------------------
#
# This file is available in the Crystallography Open Database (COD),
# http://www.crystallography.net/
#
# All data on this site have been placed in the public domain by the
# contributors.
#
data_7232402
loop_
_publ_author_name
'Fanetti, Samuele'
'Nobrega, Marcelo M.'
'Dziubek, Kamil'
'Citroni, Margherita'
'Sella, Andrea'
'McMillan, Paul F.'
'Hanfland, Michael'
'Bini, Roberto'
_publ_section_title
;
 Structure and reactivity of 2,4,6-tricyano-1,3,5-triazine under
 high-pressure conditions
;
_journal_issue                   30
_journal_name_full               CrystEngComm
_journal_page_first              4493
_journal_paper_doi               10.1039/C8CE02154F
_journal_volume                  21
_journal_year                    2019
_chemical_formula_moiety         'C6 N6'
_chemical_formula_sum            'C6 N6'
_chemical_formula_weight         156.12
_chemical_melting_point          393.15
_chemical_name_common            2,4,6-tricyano-1,3,5-triazine
_chemical_name_systematic        1,3,5-triazine-2,4,6-tricarbonitrile
_chemical_properties_physical    Moisture-sensitive
_space_group_crystal_system      monoclinic
_space_group_IT_number           4
_space_group_name_Hall           'P 2yb'
_space_group_name_H-M_alt        'P 1 21 1'
_symmetry_space_group_name_Hall  'P 2yb'
_symmetry_space_group_name_H-M   'P 1 21 1'
_audit_creation_method           'SHELXL-2016/6 (Sheldrick, 2016)'
_audit_update_record
;
2019-02-08 deposited with the CCDC.    2019-02-20 downloaded from the CCDC.
;
_cell_angle_alpha                90
_cell_angle_beta                 89.589(5)
_cell_angle_gamma                90
_cell_formula_units_Z            4
_cell_length_a                   7.75291(15)
_cell_length_b                   8.41359(13)
_cell_length_c                   9.4554(19)
_cell_measurement_reflns_used    295
_cell_measurement_temperature    293(2)
_cell_measurement_theta_max      16.7740
_cell_measurement_theta_min      2.0670
_cell_volume                     616.76(12)
_computing_cell_refinement       'CrysAlisPro (Agilent Technologies, 2018)'
_computing_data_reduction        'CrysAlisPro (Agilent Technologies, 2018)'
_computing_structure_refinement  'SHELXL-2016/6 (Sheldrick, 2016)'
_computing_structure_solution    'SHELXT-2015 (Sheldrick, 2015)'
_diffrn_ambient_pressure         2375000
_diffrn_ambient_temperature      293(2)
_diffrn_detector_area_resol_mean 7
_diffrn_measured_fraction_theta_full 0.336
_diffrn_measured_fraction_theta_max 0.211
_diffrn_measurement_device_type  'ID15B beamline, ESRF'
_diffrn_measurement_method       'omega scans'
_diffrn_radiation_type           synchrotron
_diffrn_radiation_wavelength     0.41112
_diffrn_reflns_av_R_equivalents  0.0221
_diffrn_reflns_av_unetI/netI     0.0514
_diffrn_reflns_Laue_measured_fraction_full 0.336
_diffrn_reflns_Laue_measured_fraction_max 0.211
_diffrn_reflns_limit_h_max       10
_diffrn_reflns_limit_h_min       -10
_diffrn_reflns_limit_k_max       10
_diffrn_reflns_limit_k_min       -10
_diffrn_reflns_limit_l_max       4
_diffrn_reflns_limit_l_min       -4
_diffrn_reflns_number            1242
_diffrn_reflns_point_group_measured_fraction_full 0.305
_diffrn_reflns_point_group_measured_fraction_max 0.177
_diffrn_reflns_theta_full        14.281
_diffrn_reflns_theta_max         19.254
_diffrn_reflns_theta_min         1.519
_diffrn_source                   synchrotron
_exptl_absorpt_coefficient_mu    0.048
_exptl_absorpt_correction_T_max  1.00000
_exptl_absorpt_correction_T_min  0.39460
_exptl_absorpt_correction_type   multi-scan
_exptl_absorpt_process_details
;
CrysAlisPro 1.171.39.46 (Rigaku Oxford Diffraction, 2018)
Empirical absorption correction using spherical harmonics,
 implemented in SCALE3 ABSPACK scaling algorithm.
;
_exptl_crystal_colour            colourless
_exptl_crystal_density_diffrn    1.681
_exptl_crystal_description       block
_exptl_crystal_F_000             312
_exptl_crystal_recrystallization_method Sublimation
_exptl_crystal_size_max          0.015
_exptl_crystal_size_mid          0.015
_exptl_crystal_size_min          0.015
_refine_diff_density_max         0.214
_refine_diff_density_min         -0.258
_refine_diff_density_rms         0.059
_refine_ls_abs_structure_details
;
 Flack x determined using 246 quotients [(I+)-(I-)]/[(I+)+(I-)]
 (Parsons, Flack and Wagner, Acta Cryst. B69 (2013) 249-259).
;
_refine_ls_abs_structure_Flack   -7.1(10)
_refine_ls_extinction_method     none
_refine_ls_goodness_of_fit_ref   1.150
_refine_ls_hydrogen_treatment    undef
_refine_ls_matrix_type           full
_refine_ls_number_parameters     217
_refine_ls_number_reflns         947
_refine_ls_number_restraints     7
_refine_ls_restrained_S_all      1.146
_refine_ls_R_factor_all          0.0782
_refine_ls_R_factor_gt           0.0667
_refine_ls_shift/su_max          0.000
_refine_ls_shift/su_mean         0.000
_refine_ls_structure_factor_coef Fsqd
_refine_ls_weighting_details
'w=1/[\s^2^(Fo^2^)+(0.1146P)^2^+0.1849P] where P=(Fo^2^+2Fc^2^)/3'
_refine_ls_weighting_scheme      calc
_refine_ls_wR_factor_gt          0.1763
_refine_ls_wR_factor_ref         0.1972
_reflns_Friedel_coverage         0.589
_reflns_Friedel_fraction_full    0.269
_reflns_Friedel_fraction_max     0.139
_reflns_number_gt                751
_reflns_number_total             947
_reflns_threshold_expression     'I > 2\s(I)'
_cod_data_source_file            c8ce02154f1.cif
_cod_data_source_block           TCT_I_2_38_GPa
_cod_depositor_comments
'Adding full bibliography for 7232397--7232407.cif.'
_cod_database_code               7232402
_shelx_shelxl_version_number     2016/6
_shelx_space_group_comment
;
The symmetry employed for this shelxl refinement is uniquely defined
by the following loop, which should always be used as a source of
symmetry information in preference to the above space-group names.
They are only intended as comments.
;
_oxdiff_exptl_absorpt_empirical_full_min 0.783
_oxdiff_exptl_absorpt_empirical_full_max 2.036
_oxdiff_exptl_absorpt_empirical_details
;
Empirical correction (ABSPACK) includes:
- Absorption correction using spherical harmonics
- Frame scaling
;
_shelx_res_file
;

    tct_013.res created by SHELXL-2014/7

TITL tct_013 in P2(1)
REM P2(1) (#4 with fixed user cell (not necessary: std = user cell)
CELL 0.41112 7.752909 8.413586 9.45542 90 89.5892 90
ZERR 4 0.000148 0.000129 0.001922 0 0.0054 0
LATT -1
SYMM -X,0.5+Y,-Z
SFAC C N
DISP C -0.0001 0.0005 1.07
DISP N 0.0004 0.001 2.23
UNIT 24 24
ISOR 0.02 0.02 N12

L.S. 99
PLAN  5
ACTA

WGHT    0.114600    0.184900
FVAR      12.93338
C1    1    0.516072    0.779272    0.817637    11.00000    0.05050    0.01826 =
         0.11349    0.00783    0.00889   -0.00393
C2    1    0.482238    0.908444    0.616902    11.00000    0.05302    0.03064 =
         0.06157    0.00367    0.02923    0.00183
C3    1    0.264332    0.890448    0.770038    11.00000    0.03471    0.02612 =
         0.05706    0.00968    0.00445   -0.00036
C4    1    0.086877    0.928364    0.804467    11.00000    0.03723    0.03315 =
         0.09961   -0.00047   -0.00637    0.00124
C5    1    0.629143    0.687105    0.909427    11.00000    0.04200    0.02671 =
         0.11773    0.00071    0.00430    0.00167
C6    1    0.550693    0.977612    0.495007    11.00000    0.05912    0.05824 =
         0.22213    0.05185    0.04874    0.01672
N1    2    0.356205    0.811706    0.863831    11.00000    0.03486    0.02705 =
         0.12202   -0.00072   -0.01078    0.00342
N2    2    0.585917    0.825208    0.698128    11.00000    0.04787    0.02871 =
         0.09221   -0.00701   -0.00962    0.00051
N3    2    0.314204    0.941566    0.643935    11.00000    0.04345    0.03450 =
         0.09170   -0.00524    0.00180    0.00598
N4    2   -0.056388    0.961670    0.820949    11.00000    0.05061    0.05770 =
         0.11745   -0.01838    0.00250    0.00769
N5    2    0.732800    0.619072    0.971432    11.00000    0.05514    0.03851 =
         0.06603   -0.00243    0.01287    0.01160
N6    2    0.612542    1.041421    0.401729    11.00000    0.05405    0.11809 =
         0.09439    0.07427    0.02305    0.02876
C7    1    1.095334    1.074619    0.350622    11.00000    0.04147    0.03050 =
         0.08283   -0.00231   -0.00412   -0.00292
C8    1    1.186727    0.862750    0.230477    11.00000    0.05101    0.02035 =
         0.08379    0.00176   -0.02489   -0.00153
C9    1    0.936532    0.967388    0.171572    11.00000    0.05108    0.02025 =
         0.13704   -0.01469    0.01616   -0.00472
C10   1    0.772529    0.966854    0.106591    11.00000    0.05378    0.02647 =
         0.08065    0.01261    0.00104    0.00688
C11   1    1.105103    1.189557    0.460245    11.00000    0.05042    0.03512 =
         0.14361   -0.00331    0.02939    0.00212
C12   1    1.328383    0.748113    0.207974    11.00000    0.06506    0.03403 =
         0.03537    0.00019   -0.00646    0.00336
N7    2    0.954212    1.086916    0.275738    11.00000    0.04476    0.02667 =
         0.13134   -0.00389    0.01203    0.00217
N8    2    1.213516    0.965029    0.337806    11.00000    0.05447    0.03082 =
         0.06342    0.01257    0.00916    0.00560
N9    2    1.048195    0.852179    0.156757    11.00000    0.04272    0.02829 =
         0.12313   -0.00306    0.00011   -0.00051
N10   2    0.637399    0.962993    0.054543    11.00000    0.05610    0.03815 =
         0.20279   -0.03226   -0.02211    0.00587
N11   2    1.102929    1.281183    0.544532    11.00000    0.06492    0.05112 =
         0.12933   -0.02663    0.01853   -0.00385
N12   2    1.436245    0.661733    0.202696    11.00000    0.06700    0.04630 =
         0.03771   -0.01059    0.00396    0.02082
HKLF 4

REM  tct_013 in P2(1)
REM R1 =  0.0667 for     751 Fo > 4sig(Fo)  and  0.0782 for all     947 data
REM    217 parameters refined using      7 restraints

END

WGHT      0.1146      0.1849

REM Highest difference peak  0.214,  deepest hole -0.258,  1-sigma level  0.059
Q1    1   0.4195  1.0045  0.7079  11.00000  0.05    0.21
Q2    1   0.7922  0.9426  0.3671  11.00000  0.05    0.19
Q3    1   0.3523  0.9686  0.8490  11.00000  0.05    0.18
Q4    1   0.6703  0.4773  1.0226  11.00000  0.05    0.18
Q5    1   0.6983  0.8936  0.0211  11.00000  0.05    0.18
;
_shelx_res_checksum              5535
loop_
_space_group_symop_operation_xyz
'x, y, z'
'-x, y+1/2, -z'
loop_
_atom_site_label
_atom_site_type_symbol
_atom_site_fract_x
_atom_site_fract_y
_atom_site_fract_z
_atom_site_U_iso_or_equiv
_atom_site_adp_type
_atom_site_occupancy
_atom_site_site_symmetry_order
_atom_site_calc_flag
_atom_site_refinement_flags_adp
C1 C 0.5161(15) 0.7793(10) 0.818(3) 0.061(17) Uani 1 1 d .
C2 C 0.4822(16) 0.9084(10) 0.617(4) 0.049(18) Uani 1 1 d .
C3 C 0.2643(12) 0.8904(9) 0.770(3) 0.039(15) Uani 1 1 d .
C4 C 0.0869(12) 0.9284(10) 0.804(3) 0.057(16) Uani 1 1 d .
C5 C 0.6291(13) 0.6871(10) 0.909(4) 0.062(16) Uani 1 1 d .
C6 C 0.551(2) 0.9776(18) 0.495(5) 0.11(3) Uani 1 1 d .
N1 N 0.3562(11) 0.8117(8) 0.864(3) 0.061(14) Uani 1 1 d .
N2 N 0.5859(13) 0.8252(9) 0.698(3) 0.056(15) Uani 1 1 d .
N3 N 0.3142(13) 0.9416(9) 0.644(4) 0.057(16) Uani 1 1 d .
N4 N -0.0564(14) 0.9617(13) 0.821(4) 0.075(19) Uani 1 1 d .
N5 N 0.7328(13) 0.6191(10) 0.971(3) 0.053(16) Uani 1 1 d .
N6 N 0.6125(18) 1.041(2) 0.402(5) 0.09(3) Uani 1 1 d .
C7 C 1.0953(12) 1.0746(11) 0.351(3) 0.052(19) Uani 1 1 d .
C8 C 1.1867(13) 0.8628(9) 0.230(4) 0.052(17) Uani 1 1 d .
C9 C 0.9365(15) 0.9674(10) 0.172(3) 0.070(16) Uani 1 1 d .
C10 C 0.7725(14) 0.9669(10) 0.107(3) 0.054(16) Uani 1 1 d .
C11 C 1.1051(16) 1.1896(14) 0.460(4) 0.08(2) Uani 1 1 d .
C12 C 1.3284(17) 0.7481(11) 0.208(4) 0.045(18) Uani 1 1 d .
N7 N 0.9542(12) 1.0869(9) 0.276(3) 0.068(15) Uani 1 1 d .
N8 N 1.2135(12) 0.9650(9) 0.338(3) 0.050(15) Uani 1 1 d .
N9 N 1.0482(12) 0.8522(8) 0.157(3) 0.065(15) Uani 1 1 d .
N10 N 0.6374(14) 0.9630(11) 0.055(4) 0.10(2) Uani 1 1 d .
N11 N 1.1029(16) 1.2812(15) 0.545(4) 0.08(2) Uani 1 1 d .
N12 N 1.4362(15) 0.6617(10) 0.203(3) 0.050(10) Uani 1 1 d U
loop_
_atom_site_aniso_label
_atom_site_aniso_U_11
_atom_site_aniso_U_22
_atom_site_aniso_U_33
_atom_site_aniso_U_23
_atom_site_aniso_U_13
_atom_site_aniso_U_12
C1 0.051(6) 0.018(4) 0.11(5) 0.008(7) 0.009(11) -0.004(3)
C2 0.053(5) 0.031(4) 0.06(6) 0.004(8) 0.029(11) 0.002(3)
C3 0.035(4) 0.026(4) 0.06(5) 0.010(7) 0.004(9) 0.000(3)
C4 0.037(5) 0.033(5) 0.10(5) 0.000(7) -0.006(9) 0.001(3)
C5 0.042(5) 0.027(4) 0.12(5) 0.001(7) 0.004(9) 0.002(3)
C6 0.059(8) 0.058(7) 0.22(9) 0.052(17) 0.049(18) 0.017(6)
N1 0.035(4) 0.027(4) 0.12(5) -0.001(7) -0.011(7) 0.003(2)
N2 0.048(5) 0.029(4) 0.09(5) -0.007(7) -0.010(9) 0.001(3)
N3 0.043(4) 0.034(4) 0.09(5) -0.005(7) 0.002(9) 0.006(3)
N4 0.051(5) 0.058(6) 0.12(6) -0.018(11) 0.003(11) 0.008(4)
N5 0.055(5) 0.039(4) 0.07(5) -0.002(7) 0.013(10) 0.012(3)
N6 0.054(7) 0.118(12) 0.09(9) 0.07(2) 0.023(16) 0.029(6)
C7 0.041(5) 0.030(5) 0.08(6) -0.002(8) -0.004(10) -0.003(3)
C8 0.051(5) 0.020(4) 0.08(5) 0.002(8) -0.025(10) -0.002(3)
C9 0.051(5) 0.020(4) 0.14(5) -0.015(9) 0.016(10) -0.005(3)
C10 0.054(6) 0.026(4) 0.08(5) 0.013(8) 0.001(10) 0.007(3)
C11 0.050(6) 0.035(6) 0.14(7) -0.003(12) 0.029(12) 0.002(3)
C12 0.065(6) 0.034(5) 0.04(6) 0.000(8) -0.006(12) 0.003(4)
N7 0.045(5) 0.027(4) 0.13(5) -0.004(7) 0.012(9) 0.002(2)
N8 0.054(5) 0.031(4) 0.06(5) 0.013(8) 0.009(10) 0.006(3)
N9 0.043(4) 0.028(4) 0.12(5) -0.003(7) 0.000(8) -0.001(2)
N10 0.056(6) 0.038(4) 0.20(6) -0.032(10) -0.022(11) 0.006(3)
N11 0.065(7) 0.051(6) 0.13(8) -0.027(12) 0.019(15) -0.004(4)
N12 0.067(6) 0.046(5) 0.04(3) -0.011(9) 0.004(10) 0.021(4)
loop_
_atom_type_symbol
_atom_type_description
_atom_type_scat_dispersion_real
_atom_type_scat_dispersion_imag
_atom_type_scat_source
C C -0.0001 0.0005 'International Tables Vol C Tables 4.2.6.8 and 6.1.1.4'
N N 0.0004 0.0010 'International Tables Vol C Tables 4.2.6.8 and 6.1.1.4'
loop_
_geom_angle_atom_site_label_1
_geom_angle_atom_site_label_2
_geom_angle_atom_site_label_3
_geom_angle
N2 C1 N1 127(2)
N2 C1 C5 115.1(13)
N1 C1 C5 118(2)
N2 C2 N3 126(2)
N2 C2 C6 118.3(16)
N3 C2 C6 115(2)
N1 C3 N3 127.8(13)
N1 C3 C4 118(2)
N3 C3 C4 113.7(19)
N4 C4 C3 175(4)
N5 C5 C1 172(2)
N6 C6 C2 175(4)
C3 N1 C1 113(2)
C1 N2 C2 114.2(14)
C3 N3 C2 112(2)
N8 C7 N7 126(2)
N8 C7 C11 121(2)
N7 C7 C11 112.9(12)
N9 C8 N8 125.8(12)
N9 C8 C12 120(2)
N8 C8 C12 114.0(19)
N9 C9 N7 122(2)
N9 C9 C10 123.2(19)
N7 C9 C10 113.3(12)
N10 C10 C9 178.4(15)
N11 C11 C7 175.9(16)
N12 C12 C8 174(4)
C7 N7 C9 113.9(11)
C7 N8 C8 114.2(19)
C8 N9 C9 116.4(19)
loop_
_geom_bond_atom_site_label_1
_geom_bond_atom_site_label_2
_geom_bond_distance
C1 N2 1.31(4)
C1 N1 1.339(18)
C1 C5 1.46(3)
C2 N2 1.32(3)
C2 N3 1.355(15)
C2 C6 1.39(5)
C3 N1 1.32(3)
C3 N3 1.32(4)
C3 C4 1.447(15)
C4 N4 1.155(14)
C5 N5 1.15(3)
C6 N6 1.14(5)
C7 N8 1.305(13)
C7 N7 1.31(3)
C7 C11 1.42(4)
C8 N9 1.29(3)
C8 N8 1.35(3)
C8 C12 1.476(16)
C9 N9 1.306(13)
C9 N7 1.41(3)
C9 C10 1.42(3)
C10 N10 1.16(2)
C11 N11 1.11(4)
C12 N12 1.109(14)
