#------------------------------------------------------------------------------
#$Date: 2019-11-07 21:59:08 +0200 (Thu, 07 Nov 2019) $
#$Revision: 223670 $
#$URL: file:///home/coder/svn-repositories/cod/cif/7/23/24/7232404.cif $
#------------------------------------------------------------------------------
#
# This file is available in the Crystallography Open Database (COD),
# http://www.crystallography.net/
#
# All data on this site have been placed in the public domain by the
# contributors.
#
data_7232404
loop_
_publ_author_name
'Fanetti, Samuele'
'Nobrega, Marcelo M.'
'Dziubek, Kamil'
'Citroni, Margherita'
'Sella, Andrea'
'McMillan, Paul F.'
'Hanfland, Michael'
'Bini, Roberto'
_publ_section_title
;
 Structure and reactivity of 2,4,6-tricyano-1,3,5-triazine under
 high-pressure conditions
;
_journal_issue                   30
_journal_name_full               CrystEngComm
_journal_page_first              4493
_journal_paper_doi               10.1039/C8CE02154F
_journal_volume                  21
_journal_year                    2019
_chemical_formula_moiety         'C6 N6'
_chemical_formula_sum            'C6 N6'
_chemical_formula_weight         156.12
_chemical_melting_point          393.15
_chemical_name_common            2,4,6-tricyano-1,3,5-triazine
_chemical_name_systematic        1,3,5-triazine-2,4,6-tricarbonitrile
_chemical_properties_physical    Moisture-sensitive
_space_group_crystal_system      orthorhombic
_space_group_IT_number           19
_space_group_name_Hall           'P 2ac 2ab'
_space_group_name_H-M_alt        'P 21 21 21'
_symmetry_space_group_name_Hall  'P 2ac 2ab'
_symmetry_space_group_name_H-M   'P 21 21 21'
_audit_creation_method           'SHELXL-2016/6 (Sheldrick, 2016)'
_audit_update_record
;
2019-02-08 deposited with the CCDC.    2019-02-20 downloaded from the CCDC.
;
_cell_angle_alpha                90
_cell_angle_beta                 90
_cell_angle_gamma                90
_cell_formula_units_Z            4
_cell_length_a                   6.5280(2)
_cell_length_b                   8.3510(3)
_cell_length_c                   10.604(4)
_cell_measurement_reflns_used    353
_cell_measurement_temperature    293(2)
_cell_measurement_theta_max      16.9880
_cell_measurement_theta_min      2.2950
_cell_volume                     578.1(2)
_computing_cell_refinement       'CrysAlisPro (Agilent Technologies, 2018)'
_computing_data_reduction        'CrysAlisPro (Agilent Technologies, 2018)'
_computing_structure_refinement  'SHELXL-2016/6 (Sheldrick, 2016)'
_computing_structure_solution    'SHELXT-2015 (Sheldrick, 2015)'
_diffrn_ambient_pressure         3065000
_diffrn_ambient_temperature      293(2)
_diffrn_detector_area_resol_mean 7
_diffrn_measured_fraction_theta_full 0.389
_diffrn_measured_fraction_theta_max 0.223
_diffrn_measurement_device_type  'ID15B beamline, ESRF'
_diffrn_measurement_method       'omega scans'
_diffrn_radiation_type           synchrotron
_diffrn_radiation_wavelength     0.41112
_diffrn_reflns_av_R_equivalents  0.0342
_diffrn_reflns_av_unetI/netI     0.0430
_diffrn_reflns_Laue_measured_fraction_full 0.389
_diffrn_reflns_Laue_measured_fraction_max 0.223
_diffrn_reflns_limit_h_max       8
_diffrn_reflns_limit_h_min       -8
_diffrn_reflns_limit_k_max       9
_diffrn_reflns_limit_k_min       -9
_diffrn_reflns_limit_l_max       4
_diffrn_reflns_limit_l_min       -5
_diffrn_reflns_number            1199
_diffrn_reflns_point_group_measured_fraction_full 0.366
_diffrn_reflns_point_group_measured_fraction_max 0.201
_diffrn_reflns_theta_full        14.281
_diffrn_reflns_theta_max         19.737
_diffrn_reflns_theta_min         2.291
_diffrn_source                   synchrotron
_exptl_absorpt_coefficient_mu    0.051
_exptl_absorpt_correction_T_max  1.00000
_exptl_absorpt_correction_T_min  0.38951
_exptl_absorpt_correction_type   multi-scan
_exptl_absorpt_process_details
;
CrysAlisPro 1.171.38.43 (Rigaku Oxford Diffraction, 2015)
Empirical absorption correction using spherical harmonics,
 implemented in SCALE3 ABSPACK scaling algorithm.
;
_exptl_crystal_colour            colourless
_exptl_crystal_density_diffrn    1.794
_exptl_crystal_description       block
_exptl_crystal_F_000             312
_exptl_crystal_recrystallization_method Sublimation
_exptl_crystal_size_max          0.015
_exptl_crystal_size_mid          0.015
_exptl_crystal_size_min          0.015
_refine_diff_density_max         0.132
_refine_diff_density_min         -0.136
_refine_diff_density_rms         0.035
_refine_ls_abs_structure_details
;
 Flack x determined using 144 quotients [(I+)-(I-)]/[(I+)+(I-)]
 (Parsons, Flack and Wagner, Acta Cryst. B69 (2013) 249-259).
;
_refine_ls_abs_structure_Flack   -3.5(10)
_refine_ls_extinction_method     none
_refine_ls_goodness_of_fit_ref   1.134
_refine_ls_hydrogen_treatment    undef
_refine_ls_matrix_type           full
_refine_ls_number_parameters     109
_refine_ls_number_reflns         540
_refine_ls_number_restraints     18
_refine_ls_restrained_S_all      1.115
_refine_ls_R_factor_all          0.0529
_refine_ls_R_factor_gt           0.0456
_refine_ls_shift/su_max          0.000
_refine_ls_shift/su_mean         0.000
_refine_ls_structure_factor_coef Fsqd
_refine_ls_weighting_details
'w=1/[\s^2^(Fo^2^)+(0.0575P)^2^+0.1465P] where P=(Fo^2^+2Fc^2^)/3'
_refine_ls_weighting_scheme      calc
_refine_ls_wR_factor_gt          0.1161
_refine_ls_wR_factor_ref         0.1268
_reflns_Friedel_coverage         0.552
_reflns_Friedel_fraction_full    0.331
_reflns_Friedel_fraction_max     0.170
_reflns_number_gt                463
_reflns_number_total             540
_reflns_threshold_expression     'I > 2\s(I)'
_cod_data_source_file            c8ce02154f1.cif
_cod_data_source_block           TCT_II_3_07_GPa
_cod_depositor_comments
'Adding full bibliography for 7232397--7232407.cif.'
_cod_database_code               7232404
_shelx_shelxl_version_number     2016/6
_shelx_space_group_comment
;
The symmetry employed for this shelxl refinement is uniquely defined
by the following loop, which should always be used as a source of
symmetry information in preference to the above space-group names.
They are only intended as comments.
;
_oxdiff_exptl_absorpt_empirical_full_min 0.487
_oxdiff_exptl_absorpt_empirical_full_max 2.667
_oxdiff_exptl_absorpt_empirical_details
;
Empirical correction (ABSPACK) includes:
- Absorption correction using spherical harmonics
- Frame scaling
;
_shelx_res_file
;

    tct_016.res created by SHELXL-2014/7

TITL tct_016 in P2(1)2(1)2(1)
REM P2(1)2(1)2(1) (#19 in standard setting)
CELL 0.41112 6.527972 8.350979 10.604155 90 90 90
ZERR 4 0.000247 0.000271 0.003666 0 0 0
LATT -1
SYMM 0.5-X,-Y,0.5+Z
SYMM -X,0.5+Y,0.5-Z
SYMM 0.5+X,0.5-Y,-Z
SFAC C N
DISP C -0.0001 0.0005 1.07
DISP N 0.0004 0.001 2.23
UNIT 24 24
ISOR 0.02 0.02 C5 N2 N3

L.S. 99
PLAN  5
OMIT 0 2 0
OMIT -1 -2 -1
OMIT -1 -2 -1
OMIT 1 2 1
ACTA

WGHT    0.057500    0.146500
FVAR      15.08579
C1    1    1.109813    0.380208    1.005154    11.00000    0.04627    0.02718 =
         0.04002   -0.00741   -0.00585    0.00308
C2    1    1.024960    0.488439    0.819689    11.00000    0.04180    0.03778 =
         0.02362   -0.00920   -0.00278    0.00307
C3    1    1.303281    0.569316    0.921640    11.00000    0.04532    0.02905 =
         0.06719   -0.00406    0.00289    0.00052
C4    1    1.498973    0.653646    0.919430    11.00000    0.05985    0.03059 =
         0.03447    0.00128   -0.00882   -0.00569
C5    1    1.062662    0.269199    1.104594    11.00000    0.04554    0.03256 =
         0.01817   -0.00895   -0.00317   -0.00077
C6    1    0.888301    0.502002    0.712524    11.00000    0.04271    0.04422 =
         0.03319    0.00573    0.00056    0.00068
N1    2    1.270889    0.474051    1.019927    11.00000    0.04547    0.03118 =
         0.05584   -0.00044   -0.00124    0.00065
N2    2    0.982079    0.377850    0.901791    11.00000    0.04658    0.03837 =
         0.01291    0.00286    0.00200   -0.00034
N3    2    1.183872    0.589566    0.819773    11.00000    0.04823    0.03713 =
         0.02079    0.00369    0.00121    0.00016
N4    2    1.661135    0.703213    0.913294    11.00000    0.06344    0.03985 =
         0.05287   -0.00176   -0.00365   -0.01053
N6    2    0.773380    0.517023    0.631219    11.00000    0.04913    0.06537 =
         0.07598    0.00052    0.00748    0.00898
N5    2    1.016381    0.177462    1.176995    11.00000    0.05685    0.03700 =
         0.01855   -0.00476   -0.00368   -0.00517
HKLF 4

REM  tct_016 in P2(1)2(1)2(1)
REM R1 =  0.0456 for     463 Fo > 4sig(Fo)  and  0.0529 for all     540 data
REM    109 parameters refined using     18 restraints

END

WGHT      0.0573      0.1465

REM Highest difference peak  0.132,  deepest hole -0.136,  1-sigma level  0.035
Q1    1   1.0373  0.7588  0.8448  11.00000  0.05    0.13
Q2    1   1.1631  0.1782  1.0812  11.00000  0.05    0.13
Q3    1   1.1281 -0.0183  1.2185  11.00000  0.05    0.12
Q4    1   1.1066  0.2992  0.7088  11.00000  0.05    0.11
Q5    1   1.1892  0.4385  1.0312  11.00000  0.05    0.11
;
_shelx_res_checksum              78047
loop_
_space_group_symop_operation_xyz
'x, y, z'
'-x+1/2, -y, z+1/2'
'-x, y+1/2, -z+1/2'
'x+1/2, -y+1/2, -z'
loop_
_atom_site_label
_atom_site_type_symbol
_atom_site_fract_x
_atom_site_fract_y
_atom_site_fract_z
_atom_site_U_iso_or_equiv
_atom_site_adp_type
_atom_site_occupancy
_atom_site_site_symmetry_order
_atom_site_calc_flag
_atom_site_refinement_flags_adp
C1 C 1.1098(9) 0.3802(5) 1.0052(16) 0.038(7) Uani 1 1 d .
C2 C 1.0250(8) 0.4884(5) 0.8197(15) 0.034(7) Uani 1 1 d .
C3 C 1.3033(9) 0.5693(5) 0.9216(16) 0.047(8) Uani 1 1 d .
C4 C 1.4990(9) 0.6536(5) 0.9194(15) 0.042(8) Uani 1 1 d .
C5 C 1.0627(8) 0.2692(6) 1.1046(16) 0.032(6) Uani 1 1 d U
C6 C 0.8883(10) 0.5020(6) 0.7125(16) 0.040(8) Uani 1 1 d .
N1 N 1.2709(7) 0.4741(5) 1.0199(14) 0.044(7) Uani 1 1 d .
N2 N 0.9821(7) 0.3778(5) 0.9018(14) 0.033(6) Uani 1 1 d U
N3 N 1.1839(7) 0.5896(4) 0.8198(14) 0.035(5) Uani 1 1 d U
N4 N 1.6611(8) 0.7032(5) 0.9133(15) 0.052(7) Uani 1 1 d .
N6 N 0.7734(9) 0.5170(7) 0.6312(18) 0.063(9) Uani 1 1 d .
N5 N 1.0164(7) 0.1775(5) 1.1770(14) 0.037(7) Uani 1 1 d .
loop_
_atom_site_aniso_label
_atom_site_aniso_U_11
_atom_site_aniso_U_22
_atom_site_aniso_U_33
_atom_site_aniso_U_23
_atom_site_aniso_U_13
_atom_site_aniso_U_12
C1 0.046(3) 0.027(2) 0.04(2) -0.007(4) -0.006(5) 0.0031(14)
C2 0.042(3) 0.038(2) 0.02(2) -0.009(5) -0.003(5) 0.0031(17)
C3 0.045(3) 0.029(2) 0.07(2) -0.004(4) 0.003(5) 0.0005(16)
C4 0.060(3) 0.031(2) 0.03(2) 0.001(4) -0.009(6) -0.0057(17)
C5 0.046(3) 0.033(2) 0.02(2) -0.009(4) -0.003(5) -0.0008(16)
C6 0.043(3) 0.044(3) 0.03(2) 0.006(5) 0.001(5) 0.0007(19)
N1 0.045(2) 0.031(2) 0.06(2) 0.000(3) -0.001(4) 0.0006(13)
N2 0.047(2) 0.038(2) 0.013(18) 0.003(3) 0.002(5) -0.0003(14)
N3 0.048(3) 0.037(2) 0.021(17) 0.004(4) 0.001(5) 0.0002(14)
N4 0.063(3) 0.040(2) 0.05(2) -0.002(4) -0.004(6) -0.0105(18)
N6 0.049(3) 0.065(3) 0.08(3) 0.001(5) 0.007(6) 0.009(2)
N5 0.057(3) 0.037(2) 0.02(2) -0.005(4) -0.004(5) -0.0052(16)
loop_
_atom_type_symbol
_atom_type_description
_atom_type_scat_dispersion_real
_atom_type_scat_dispersion_imag
_atom_type_scat_source
C C -0.0001 0.0005 'International Tables Vol C Tables 4.2.6.8 and 6.1.1.4'
N N 0.0004 0.0010 'International Tables Vol C Tables 4.2.6.8 and 6.1.1.4'
loop_
_geom_angle_atom_site_label_1
_geom_angle_atom_site_label_2
_geom_angle_atom_site_label_3
_geom_angle
N1 C1 N2 125.8(11)
N1 C1 C5 117.8(12)
N2 C1 C5 116.4(6)
N2 C2 N3 128.0(11)
N2 C2 C6 116.6(6)
N3 C2 C6 115.4(10)
N1 C3 N3 127.9(6)
N1 C3 C4 116.2(10)
N3 C3 C4 115.8(11)
N4 C4 C3 172.1(7)
N5 C5 C1 175.2(11)
N6 C6 C2 176.6(12)
C1 N1 C3 112.9(11)
C2 N2 C1 113.1(6)
C2 N3 C3 111.8(10)
loop_
_geom_bond_atom_site_label_1
_geom_bond_atom_site_label_2
_geom_bond_distance
C1 N1 1.321(8)
C1 N2 1.377(19)
C1 C5 1.437(19)
C2 N2 1.300(15)
C2 N3 1.338(6)
C2 C6 1.449(19)
C3 N1 1.328(18)
C3 N3 1.343(18)
C3 C4 1.459(7)
C4 N4 1.139(7)
C5 N5 1.126(16)
C6 N6 1.15(2)
