#------------------------------------------------------------------------------
#$Date: 2019-11-07 21:59:08 +0200 (Thu, 07 Nov 2019) $
#$Revision: 223670 $
#$URL: file:///home/coder/svn-repositories/cod/cif/7/23/24/7232400.cif $
#------------------------------------------------------------------------------
#
# This file is available in the Crystallography Open Database (COD),
# http://www.crystallography.net/
#
# All data on this site have been placed in the public domain by the
# contributors.
#
data_7232400
loop_
_publ_author_name
'Fanetti, Samuele'
'Nobrega, Marcelo M.'
'Dziubek, Kamil'
'Citroni, Margherita'
'Sella, Andrea'
'McMillan, Paul F.'
'Hanfland, Michael'
'Bini, Roberto'
_publ_section_title
;
 Structure and reactivity of 2,4,6-tricyano-1,3,5-triazine under
 high-pressure conditions
;
_journal_issue                   30
_journal_name_full               CrystEngComm
_journal_page_first              4493
_journal_paper_doi               10.1039/C8CE02154F
_journal_volume                  21
_journal_year                    2019
_chemical_formula_moiety         'C6 N6'
_chemical_formula_sum            'C6 N6'
_chemical_formula_weight         156.12
_chemical_melting_point          393.15
_chemical_name_common            2,4,6-tricyano-1,3,5-triazine
_chemical_name_systematic        1,3,5-triazine-2,4,6-tricarbonitrile
_chemical_properties_physical    Moisture-sensitive
_space_group_crystal_system      monoclinic
_space_group_IT_number           4
_space_group_name_Hall           'P 2yb'
_space_group_name_H-M_alt        'P 1 21 1'
_symmetry_space_group_name_Hall  'P 2yb'
_symmetry_space_group_name_H-M   'P 1 21 1'
_audit_creation_method           'SHELXL-2016/6 (Sheldrick, 2016)'
_audit_update_record
;
2019-02-08 deposited with the CCDC.    2019-02-20 downloaded from the CCDC.
;
_cell_angle_alpha                90
_cell_angle_beta                 90.55(2)
_cell_angle_gamma                90
_cell_formula_units_Z            4
_cell_length_a                   8.1489(7)
_cell_length_b                   8.8529(5)
_cell_length_c                   9.679(10)
_cell_measurement_reflns_used    225
_cell_measurement_temperature    293(2)
_cell_measurement_theta_max      13.4350
_cell_measurement_theta_min      1.9620
_cell_volume                     698.2(7)
_computing_cell_refinement       'CrysAlisPro (Agilent Technologies, 2013)'
_computing_data_reduction        'CrysAlisPro (Agilent Technologies, 2013)'
_computing_structure_refinement  'SHELXL-2016/6 (Sheldrick, 2016)'
_computing_structure_solution    'SHELXT-2015 (Sheldrick, 2015)'
_diffrn_ambient_pressure         350000
_diffrn_ambient_temperature      293(2)
_diffrn_detector_area_resol_mean 7
_diffrn_measured_fraction_theta_full 0.341
_diffrn_measured_fraction_theta_max 0.187
_diffrn_measurement_device_type  'ID15B beamline, ESRF'
_diffrn_measurement_method       'omega scans'
_diffrn_radiation_type           synchrotron
_diffrn_radiation_wavelength     0.41112
_diffrn_reflns_av_R_equivalents  0.0384
_diffrn_reflns_av_unetI/netI     0.0636
_diffrn_reflns_Laue_measured_fraction_full 0.341
_diffrn_reflns_Laue_measured_fraction_max 0.187
_diffrn_reflns_limit_h_max       11
_diffrn_reflns_limit_h_min       -11
_diffrn_reflns_limit_k_max       11
_diffrn_reflns_limit_k_min       -11
_diffrn_reflns_limit_l_max       4
_diffrn_reflns_limit_l_min       -4
_diffrn_reflns_number            1404
_diffrn_reflns_point_group_measured_fraction_full 0.316
_diffrn_reflns_point_group_measured_fraction_max 0.158
_diffrn_reflns_theta_full        14.281
_diffrn_reflns_theta_max         19.844
_diffrn_reflns_theta_min         1.965
_diffrn_source                   synchrotron
_exptl_absorpt_coefficient_mu    0.042
_exptl_absorpt_correction_T_max  1.00000
_exptl_absorpt_correction_T_min  0.17047
_exptl_absorpt_correction_type   multi-scan
_exptl_absorpt_process_details
;
CrysAlisPro 1.171.38.43 (Rigaku Oxford Diffraction, 2015)
Empirical absorption correction using spherical harmonics,
 implemented in SCALE3 ABSPACK scaling algorithm.
;
_exptl_crystal_colour            colourless
_exptl_crystal_density_diffrn    1.485
_exptl_crystal_description       block
_exptl_crystal_F_000             312
_exptl_crystal_recrystallization_method Sublimation
_exptl_crystal_size_max          0.015
_exptl_crystal_size_mid          0.015
_exptl_crystal_size_min          0.015
_refine_diff_density_max         0.148
_refine_diff_density_min         -0.143
_refine_diff_density_rms         0.042
_refine_ls_abs_structure_details
;
 Flack x determined using 257 quotients [(I+)-(I-)]/[(I+)+(I-)]
 (Parsons, Flack and Wagner, Acta Cryst. B69 (2013) 249-259).
;
_refine_ls_abs_structure_Flack   -7.5(10)
_refine_ls_extinction_method     none
_refine_ls_goodness_of_fit_ref   1.102
_refine_ls_hydrogen_treatment    undef
_refine_ls_matrix_type           full
_refine_ls_number_parameters     217
_refine_ls_number_reflns         1042
_refine_ls_number_restraints     1
_refine_ls_restrained_S_all      1.101
_refine_ls_R_factor_all          0.0751
_refine_ls_R_factor_gt           0.0575
_refine_ls_shift/su_max          0.000
_refine_ls_shift/su_mean         0.000
_refine_ls_structure_factor_coef Fsqd
_refine_ls_weighting_details
'w=1/[\s^2^(Fo^2^)+(0.0794P)^2^+0.1659P] where P=(Fo^2^+2Fc^2^)/3'
_refine_ls_weighting_scheme      calc
_refine_ls_wR_factor_gt          0.1487
_refine_ls_wR_factor_ref         0.1706
_reflns_Friedel_coverage         0.616
_reflns_Friedel_fraction_full    0.288
_reflns_Friedel_fraction_max     0.127
_reflns_number_gt                765
_reflns_number_total             1042
_reflns_threshold_expression     'I > 2\s(I)'
_cod_data_source_file            c8ce02154f1.cif
_cod_data_source_block           TCT_I_0_35_GPa
_cod_depositor_comments
'Adding full bibliography for 7232397--7232407.cif.'
_cod_database_code               7232400
_shelx_shelxl_version_number     2016/6
_shelx_space_group_comment
;
The symmetry employed for this shelxl refinement is uniquely defined
by the following loop, which should always be used as a source of
symmetry information in preference to the above space-group names.
They are only intended as comments.
;
_oxdiff_exptl_absorpt_empirical_full_min 0.699
_oxdiff_exptl_absorpt_empirical_full_max 4.005
_oxdiff_exptl_absorpt_empirical_details
;
Empirical correction (ABSPACK) includes:
- Absorption correction using spherical harmonics
- Frame scaling
;
_shelx_res_file
;

    tct_007.res created by SHELXL-2014/7


TITL tct_007 in P2(1)
REM P2(1) (#4 in standard setting)
CELL 0.41112 8.14889 8.852909 9.679432 90 90.5459 90
ZERR 4 0.000653 0.000523 0.010435 0 0.0221 0
LATT -1
SYMM -X,0.5+Y,-Z
SFAC C N
DISP C -0.0001 0.0005 1.07
DISP N 0.0004 0.001 2.23
UNIT 24 24

L.S. 99
PLAN  5
ACTA

WGHT    0.079400    0.165900
FVAR      12.15807
C1    1    0.512637    0.775763    0.813325    11.00000    0.06423    0.03330 =
         0.12446    0.00258   -0.00461    0.00037
C2    1    0.485753    0.916887    0.628279    11.00000    0.06587    0.04319 =
         0.19960    0.00569    0.01951    0.00143
C3    1    0.274582    0.889875    0.765784    11.00000    0.05105    0.03907 =
         0.13016    0.00187    0.00914    0.00411
C4    1    0.105503    0.925421    0.798062    11.00000    0.05969    0.05098 =
         0.13699    0.00734    0.00064    0.00441
C5    1    0.611047    0.678922    0.900094    11.00000    0.05455    0.04662 =
         0.16305   -0.00660    0.01228    0.00058
C6    1    0.554063    0.988227    0.503237    11.00000    0.06167    0.07610 =
         0.15956    0.01812    0.00289    0.01076
N1    2    0.357700    0.802891    0.857678    11.00000    0.05408    0.04181 =
         0.11629    0.00625    0.00880    0.00609
N2    2    0.582636    0.829228    0.703334    11.00000    0.05639    0.04307 =
         0.14756    0.00158    0.00026    0.00266
N3    2    0.330278    0.949850    0.651824    11.00000    0.05575    0.04725 =
         0.11870   -0.00179   -0.00524    0.00343
N4    2   -0.029026    0.956019    0.814152    11.00000    0.07341    0.10284 =
         0.12707   -0.01772    0.01382    0.02118
N5    2    0.702254    0.603151    0.960372    11.00000    0.08051    0.06785 =
         0.07576    0.00842   -0.00594    0.02430
N6    2    0.612769    1.050506    0.417006    11.00000    0.07751    0.12419 =
         0.13997    0.05528    0.00945    0.00944
C7    1    1.084167    1.072902    0.346090    11.00000    0.06619    0.04196 =
         0.15553   -0.00950    0.00926   -0.00655
C8    1    1.177280    0.870994    0.238353    11.00000    0.07317    0.04065 =
         0.07098    0.00446   -0.00341   -0.00083
C9    1    0.936237    0.965349    0.178842    11.00000    0.06268    0.04036 =
         0.08561   -0.00304   -0.02438   -0.00466
C10   1    0.785643    0.960288    0.104527    11.00000    0.07459    0.04765 =
         0.10585   -0.00573   -0.00543    0.00604
C11   1    1.097981    1.186609    0.462429    11.00000    0.07675    0.05304 =
         0.20095   -0.00785    0.02794   -0.00006
C12   1    1.308992    0.762237    0.222249    11.00000    0.08007    0.05058 =
         0.04964   -0.00194    0.00575    0.00460
N7    2    0.949900    1.080270    0.276027    11.00000    0.06935    0.03711 =
         0.11069    0.00284    0.00397   -0.00231
N8    2    1.205010    0.972259    0.343461    11.00000    0.06719    0.04491 =
         0.09362   -0.00559   -0.00700    0.00171
N9    2    1.046279    0.858289    0.161365    11.00000    0.06622    0.04115 =
         0.10960   -0.01076    0.00439    0.00036
N10   2    0.665716    0.951928    0.044809    11.00000    0.08472    0.06592 =
         0.17070   -0.02032   -0.02597    0.00323
N11   2    1.097873    1.274542    0.548678    11.00000    0.08233    0.07427 =
         0.08458   -0.02904    0.01150   -0.00106
N12   2    1.413463    0.678828    0.210244    11.00000    0.08803    0.06467 =
         0.23328    0.00137    0.02397    0.02242
HKLF 4

REM  tct_007 in P2(1)
REM R1 =  0.0575 for     765 Fo > 4sig(Fo)  and  0.0751 for all    1042 data
REM    217 parameters refined using      1 restraints

END

WGHT      0.0794      0.1659

REM Highest difference peak  0.148,  deepest hole -0.143,  1-sigma level  0.042
Q1    1   0.6172  0.6741  0.5367  11.00000  0.05    0.15
Q2    1   0.4035  1.2007  0.5231  11.00000  0.05    0.14
Q3    1   1.2537  0.6760  0.1045  11.00000  0.05    0.13
Q4    1   1.1735  0.6159  0.3593  11.00000  0.05    0.13
Q5    1  -0.0509  1.0964  0.6872  11.00000  0.05    0.12
;
_shelx_res_checksum              14951
loop_
_space_group_symop_operation_xyz
'x, y, z'
'-x, y+1/2, -z'
loop_
_atom_site_label
_atom_site_type_symbol
_atom_site_fract_x
_atom_site_fract_y
_atom_site_fract_z
_atom_site_U_iso_or_equiv
_atom_site_adp_type
_atom_site_occupancy
_atom_site_site_symmetry_order
_atom_site_calc_flag
C1 C 0.5126(13) 0.7758(9) 0.813(3) 0.074(14) Uani 1 1 d
C2 C 0.4858(14) 0.9169(10) 0.628(4) 0.103(18) Uani 1 1 d
C3 C 0.2746(12) 0.8899(9) 0.766(3) 0.073(14) Uani 1 1 d
C4 C 0.1055(13) 0.9254(10) 0.798(3) 0.083(18) Uani 1 1 d
C5 C 0.6110(13) 0.6789(9) 0.900(3) 0.088(17) Uani 1 1 d
C6 C 0.5541(17) 0.9882(14) 0.503(5) 0.10(2) Uani 1 1 d
N1 N 0.3577(10) 0.8029(7) 0.858(3) 0.071(12) Uani 1 1 d
N2 N 0.5826(11) 0.8292(7) 0.703(3) 0.082(14) Uani 1 1 d
N3 N 0.3303(10) 0.9499(8) 0.652(3) 0.074(13) Uani 1 1 d
N4 N -0.0290(14) 0.9560(13) 0.814(4) 0.10(2) Uani 1 1 d
N5 N 0.7023(13) 0.6032(10) 0.960(3) 0.075(14) Uani 1 1 d
N6 N 0.6128(19) 1.0505(18) 0.417(5) 0.11(3) Uani 1 1 d
C7 C 1.0842(14) 1.0729(10) 0.346(3) 0.088(19) Uani 1 1 d
C8 C 1.1773(14) 0.8710(9) 0.238(3) 0.062(15) Uani 1 1 d
C9 C 0.9362(13) 0.9653(9) 0.179(3) 0.063(14) Uani 1 1 d
C10 C 0.7856(17) 0.9603(10) 0.105(3) 0.076(15) Uani 1 1 d
C11 C 1.0980(16) 1.1866(12) 0.462(5) 0.11(2) Uani 1 1 d
C12 C 1.3090(15) 0.7622(10) 0.222(3) 0.060(16) Uani 1 1 d
N7 N 0.9499(12) 1.0803(7) 0.276(2) 0.072(13) Uani 1 1 d
N8 N 1.2050(11) 0.9723(8) 0.343(3) 0.069(15) Uani 1 1 d
N9 N 1.0463(13) 0.8583(7) 0.161(3) 0.072(14) Uani 1 1 d
N10 N 0.6657(16) 0.9519(11) 0.045(3) 0.107(18) Uani 1 1 d
N11 N 1.0979(15) 1.2745(13) 0.549(4) 0.08(2) Uani 1 1 d
N12 N 1.4135(14) 0.6788(10) 0.210(4) 0.13(2) Uani 1 1 d
loop_
_atom_site_aniso_label
_atom_site_aniso_U_11
_atom_site_aniso_U_22
_atom_site_aniso_U_33
_atom_site_aniso_U_23
_atom_site_aniso_U_13
_atom_site_aniso_U_12
C1 0.064(6) 0.033(4) 0.12(5) 0.003(7) -0.005(10) 0.000(3)
C2 0.066(6) 0.043(4) 0.20(6) 0.006(9) 0.020(13) 0.001(3)
C3 0.051(5) 0.039(4) 0.13(4) 0.002(7) 0.009(10) 0.004(3)
C4 0.060(6) 0.051(5) 0.14(6) 0.007(8) 0.001(11) 0.004(3)
C5 0.055(5) 0.047(4) 0.16(5) -0.007(8) 0.012(10) 0.001(3)
C6 0.062(7) 0.076(7) 0.16(7) 0.018(12) 0.003(14) 0.011(5)
N1 0.054(4) 0.042(3) 0.12(4) 0.006(6) 0.009(8) 0.006(2)
N2 0.056(5) 0.043(4) 0.15(4) 0.002(7) 0.000(9) 0.003(3)
N3 0.056(5) 0.047(4) 0.12(4) -0.002(7) -0.005(9) 0.003(3)
N4 0.073(7) 0.103(8) 0.13(7) -0.018(12) 0.014(13) 0.021(5)
N5 0.081(6) 0.068(5) 0.08(4) 0.008(8) -0.006(12) 0.024(4)
N6 0.078(9) 0.124(11) 0.14(9) 0.055(16) 0.009(18) 0.009(6)
C7 0.066(6) 0.042(5) 0.16(6) -0.010(9) 0.009(12) -0.007(3)
C8 0.073(7) 0.041(5) 0.07(5) 0.004(7) -0.003(12) -0.001(3)
C9 0.063(5) 0.040(4) 0.09(5) -0.003(8) -0.024(10) -0.005(3)
C10 0.075(7) 0.048(5) 0.11(5) -0.006(8) -0.005(11) 0.006(4)
C11 0.077(7) 0.053(6) 0.20(7) -0.008(12) 0.028(14) 0.000(4)
C12 0.080(7) 0.051(5) 0.05(5) -0.002(7) 0.006(12) 0.005(4)
N7 0.069(5) 0.037(4) 0.11(4) 0.003(6) 0.004(9) -0.002(3)
N8 0.067(5) 0.045(4) 0.09(5) -0.006(7) -0.007(10) 0.002(3)
N9 0.066(5) 0.041(3) 0.11(5) -0.011(6) 0.004(10) 0.000(3)
N10 0.085(7) 0.066(5) 0.17(6) -0.020(10) -0.026(13) 0.003(4)
N11 0.082(7) 0.074(6) 0.08(7) -0.029(11) 0.011(13) -0.001(4)
N12 0.088(7) 0.065(5) 0.23(6) 0.001(9) 0.024(15) 0.022(4)
loop_
_atom_type_symbol
_atom_type_description
_atom_type_scat_dispersion_real
_atom_type_scat_dispersion_imag
_atom_type_scat_source
C C -0.0001 0.0005 'International Tables Vol C Tables 4.2.6.8 and 6.1.1.4'
N N 0.0004 0.0010 'International Tables Vol C Tables 4.2.6.8 and 6.1.1.4'
loop_
_geom_angle_atom_site_label_1
_geom_angle_atom_site_label_2
_geom_angle_atom_site_label_3
_geom_angle
N2 C1 N1 127.6(17)
N2 C1 C5 116.6(12)
N1 C1 C5 116(2)
N2 C2 N3 127(2)
N2 C2 C6 118.3(13)
N3 C2 C6 114.6(19)
N3 C3 N1 127.5(10)
N3 C3 C4 115.5(18)
N1 C3 C4 117(2)
N4 C4 C3 175(3)
N5 C5 C1 173(2)
N6 C6 C2 174(4)
C3 N1 C1 110.7(19)
C1 N2 C2 113.5(13)
C3 N3 C2 113.3(17)
N7 C7 N8 130.7(19)
N7 C7 C11 114.6(12)
N8 C7 C11 114.2(19)
N9 C8 N8 127.5(11)
N9 C8 C12 119.0(19)
N8 C8 C12 113.3(19)
N9 C9 N7 124.3(17)
N9 C9 C10 120.0(17)
N7 C9 C10 115.5(11)
N10 C10 C9 178.1(11)
N11 C11 C7 175.5(17)
N12 C12 C8 179(2)
C7 N7 C9 112.5(11)
C7 N8 C8 109.6(18)
C8 N9 C9 114.9(16)
loop_
_geom_bond_atom_site_label_1
_geom_bond_atom_site_label_2
_geom_bond_distance
C1 N2 1.30(3)
C1 N1 1.359(18)
C1 C5 1.44(3)
C2 N2 1.32(3)
C2 N3 1.322(14)
C2 C6 1.48(5)
C3 N3 1.31(4)
C3 N1 1.35(3)
C3 C4 1.450(15)
C4 N4 1.141(14)
C5 N5 1.16(3)
C6 N6 1.11(5)
C7 N7 1.28(3)
C7 N8 1.328(14)
C7 C11 1.51(4)
C8 N9 1.30(3)
C8 N8 1.37(3)
C8 C12 1.451(15)
C9 N9 1.317(14)
C9 N7 1.39(2)
C9 C10 1.42(3)
C10 N10 1.13(3)
C11 N11 1.14(4)
C12 N12 1.134(14)
