#------------------------------------------------------------------------------
#$Date: 2019-11-07 21:59:08 +0200 (Thu, 07 Nov 2019) $
#$Revision: 223670 $
#$URL: file:///home/coder/svn-repositories/cod/cif/7/23/24/7232401.cif $
#------------------------------------------------------------------------------
#
# This file is available in the Crystallography Open Database (COD),
# http://www.crystallography.net/
#
# All data on this site have been placed in the public domain by the
# contributors.
#
data_7232401
loop_
_publ_author_name
'Fanetti, Samuele'
'Nobrega, Marcelo M.'
'Dziubek, Kamil'
'Citroni, Margherita'
'Sella, Andrea'
'McMillan, Paul F.'
'Hanfland, Michael'
'Bini, Roberto'
_publ_section_title
;
 Structure and reactivity of 2,4,6-tricyano-1,3,5-triazine under
 high-pressure conditions
;
_journal_issue                   30
_journal_name_full               CrystEngComm
_journal_page_first              4493
_journal_paper_doi               10.1039/C8CE02154F
_journal_volume                  21
_journal_year                    2019
_chemical_formula_moiety         'C6 N6'
_chemical_formula_sum            'C6 N6'
_chemical_formula_weight         156.12
_chemical_melting_point          393.15
_chemical_name_common            2,4,6-tricyano-1,3,5-triazine
_chemical_name_systematic        1,3,5-triazine-2,4,6-tricarbonitrile
_chemical_properties_physical    Moisture-sensitive
_space_group_crystal_system      monoclinic
_space_group_IT_number           4
_space_group_name_Hall           'P 2yb'
_space_group_name_H-M_alt        'P 1 21 1'
_symmetry_space_group_name_Hall  'P 2yb'
_symmetry_space_group_name_H-M   'P 1 21 1'
_audit_creation_method           'SHELXL-2016/6 (Sheldrick, 2016)'
_audit_update_record
;
2019-02-08 deposited with the CCDC.    2019-02-20 downloaded from the CCDC.
;
_cell_angle_alpha                90
_cell_angle_beta                 89.760(6)
_cell_angle_gamma                90
_cell_formula_units_Z            4
_cell_length_a                   7.78108(18)
_cell_length_b                   8.47624(15)
_cell_length_c                   9.491(2)
_cell_measurement_reflns_used    283
_cell_measurement_temperature    293(2)
_cell_measurement_theta_max      16.6730
_cell_measurement_theta_min      2.0530
_cell_volume                     625.97(13)
_computing_cell_refinement       'CrysAlisPro (Agilent Technologies, 2018)'
_computing_data_reduction        'CrysAlisPro (Agilent Technologies, 2018)'
_computing_structure_refinement  'SHELXL-2016/6 (Sheldrick, 2016)'
_computing_structure_solution    'SHELXT-2015 (Sheldrick, 2015)'
_diffrn_ambient_pressure         1985000
_diffrn_ambient_temperature      293(2)
_diffrn_detector_area_resol_mean 7
_diffrn_measured_fraction_theta_full 0.338
_diffrn_measured_fraction_theta_max 0.214
_diffrn_measurement_device_type  'ID15B beamline, ESRF'
_diffrn_measurement_method       'omega scans'
_diffrn_radiation_type           synchrotron
_diffrn_radiation_wavelength     0.41112
_diffrn_reflns_av_R_equivalents  0.0352
_diffrn_reflns_av_unetI/netI     0.0556
_diffrn_reflns_Laue_measured_fraction_full 0.338
_diffrn_reflns_Laue_measured_fraction_max 0.214
_diffrn_reflns_limit_h_max       10
_diffrn_reflns_limit_h_min       -10
_diffrn_reflns_limit_k_max       10
_diffrn_reflns_limit_k_min       -10
_diffrn_reflns_limit_l_max       4
_diffrn_reflns_limit_l_min       -4
_diffrn_reflns_number            1268
_diffrn_reflns_point_group_measured_fraction_full 0.307
_diffrn_reflns_point_group_measured_fraction_max 0.180
_diffrn_reflns_theta_full        14.281
_diffrn_reflns_theta_max         19.181
_diffrn_reflns_theta_min         3.045
_diffrn_source                   synchrotron
_exptl_absorpt_coefficient_mu    0.047
_exptl_absorpt_correction_T_max  1.00000
_exptl_absorpt_correction_T_min  0.10195
_exptl_absorpt_correction_type   multi-scan
_exptl_absorpt_process_details
;
CrysAlisPro 1.171.39.46 (Rigaku Oxford Diffraction, 2018)
Empirical absorption correction using spherical harmonics,
 implemented in SCALE3 ABSPACK scaling algorithm.
;
_exptl_crystal_colour            colourless
_exptl_crystal_density_diffrn    1.657
_exptl_crystal_description       block
_exptl_crystal_F_000             312
_exptl_crystal_recrystallization_method Sublimation
_exptl_crystal_size_max          0.015
_exptl_crystal_size_mid          0.015
_exptl_crystal_size_min          0.015
_refine_diff_density_max         0.189
_refine_diff_density_min         -0.198
_refine_diff_density_rms         0.049
_refine_ls_abs_structure_details
;
 Flack x determined using 256 quotients [(I+)-(I-)]/[(I+)+(I-)]
 (Parsons, Flack and Wagner, Acta Cryst. B69 (2013) 249-259).
;
_refine_ls_abs_structure_Flack   -10.0(10)
_refine_ls_extinction_method     none
_refine_ls_goodness_of_fit_ref   0.995
_refine_ls_hydrogen_treatment    undef
_refine_ls_matrix_type           full
_refine_ls_number_parameters     217
_refine_ls_number_reflns         967
_refine_ls_number_restraints     13
_refine_ls_restrained_S_all      0.988
_refine_ls_R_factor_all          0.0744
_refine_ls_R_factor_gt           0.0635
_refine_ls_shift/su_max          0.000
_refine_ls_shift/su_mean         0.000
_refine_ls_structure_factor_coef Fsqd
_refine_ls_weighting_details
'w=1/[\s^2^(Fo^2^)+(0.1384P)^2^+0.2640P] where P=(Fo^2^+2Fc^2^)/3'
_refine_ls_weighting_scheme      calc
_refine_ls_wR_factor_gt          0.1762
_refine_ls_wR_factor_ref         0.1966
_reflns_Friedel_coverage         0.590
_reflns_Friedel_fraction_full    0.271
_reflns_Friedel_fraction_max     0.141
_reflns_number_gt                775
_reflns_number_total             967
_reflns_threshold_expression     'I > 2\s(I)'
_cod_data_source_file            c8ce02154f1.cif
_cod_data_source_block           TCT_I_1_99_GPa
_cod_depositor_comments
'Adding full bibliography for 7232397--7232407.cif.'
_cod_database_code               7232401
_shelx_shelxl_version_number     2016/6
_shelx_space_group_comment
;
The symmetry employed for this shelxl refinement is uniquely defined
by the following loop, which should always be used as a source of
symmetry information in preference to the above space-group names.
They are only intended as comments.
;
_oxdiff_exptl_absorpt_empirical_full_min 0.636
_oxdiff_exptl_absorpt_empirical_full_max 6.801
_oxdiff_exptl_absorpt_empirical_details
;
Empirical correction (ABSPACK) includes:
- Absorption correction using spherical harmonics
- Frame scaling
;
_shelx_res_file
;

    tct_012.res created by SHELXL-2014/7


TITL tct_012 in P2(1)
REM P2(1) (#4 with fixed user cell (not necessary: std = user cell)
CELL 0.41112 7.781085 8.476242 9.491161 90 89.76 90
ZERR 4 0.000175 0.000148 0.002276 0 0.0061 0
LATT -1
SYMM -X,0.5+Y,-Z
SFAC C N
DISP C -0.0001 0.0005 1.07
DISP N 0.0004 0.001 2.23
UNIT 24 24
ISOR 0.02 0.02 C12 N12

L.S. 99
PLAN  5
ACTA

OMIT 1 -1 -1
OMIT 0 -2 0
OMIT 1 3 1

WGHT    0.138400    0.264000
FVAR      12.79562
C1    1    0.516295    0.778847    0.817526    11.00000    0.04932    0.02336 =
         0.07903    0.00141   -0.00921   -0.00277
C2    1    0.485214    0.910716    0.621533    11.00000    0.05427    0.02726 =
         0.07597    0.00234    0.00147    0.00021
C3    1    0.264925    0.890374    0.765299    11.00000    0.03576    0.02351 =
         0.13043    0.00264   -0.01002    0.00142
C4    1    0.088724    0.928430    0.803119    11.00000    0.03652    0.02984 =
         0.19865   -0.00498   -0.00220    0.00248
C5    1    0.628864    0.685848    0.905823    11.00000    0.04279    0.02957 =
         0.13576    0.00419    0.00622    0.00337
C6    1    0.552430    0.980614    0.496051    11.00000    0.05516    0.05379 =
         0.17211    0.02799    0.02087    0.01543
N1    2    0.356006    0.810403    0.863098    11.00000    0.04173    0.03000 =
         0.10099    0.01007    0.00037    0.00100
N2    2    0.586416    0.826299    0.697000    11.00000    0.04588    0.03243 =
         0.09377   -0.00402    0.00142    0.00199
N3    2    0.317053    0.944807    0.642312    11.00000    0.04705    0.03483 =
         0.07674    0.00323   -0.01194    0.00178
N4    2   -0.053666    0.960391    0.821154    11.00000    0.05048    0.05700 =
         0.17762   -0.01519   -0.00357    0.00586
N5    2    0.728017    0.617043    0.971799    11.00000    0.05736    0.03723 =
         0.10983    0.00580    0.01261    0.00982
N6    2    0.614373    1.047145    0.403542    11.00000    0.06280    0.11227 =
         0.20989    0.07576    0.03491    0.03402
C7    1    1.093949    1.073075    0.347343    11.00000    0.04474    0.03142 =
         0.10172    0.00222   -0.01484   -0.00385
C8    1    1.188100    0.862881    0.234985    11.00000    0.05328    0.02566 =
         0.07231    0.00009   -0.01704   -0.00026
C9    1    0.936466    0.967360    0.172245    11.00000    0.04844    0.02231 =
         0.13468   -0.00841   -0.00187   -0.00279
C10   1    0.774770    0.965173    0.101610    11.00000    0.04746    0.03014 =
         0.10557    0.00085   -0.00979    0.00301
C11   1    1.104965    1.188489    0.461032    11.00000    0.05451    0.03643 =
         0.14996   -0.01285    0.00974    0.00559
C12   1    1.327096    0.749323    0.213526    11.00000    0.05659    0.03750 =
         0.04742    0.00110   -0.00562    0.00408
N7    2    0.954008    1.085932    0.275902    11.00000    0.04393    0.02580 =
         0.15598   -0.00093    0.01455    0.00298
N8    2    1.217020    0.964716    0.338548    11.00000    0.05140    0.03162 =
         0.07141   -0.00323   -0.00494    0.00404
N9    2    1.049937    0.852600    0.154358    11.00000    0.04852    0.02652 =
         0.12834   -0.00003    0.00164    0.00099
N10   2    0.640067    0.962127    0.055348    11.00000    0.06539    0.04003 =
         0.18859   -0.01985   -0.01036    0.00910
N11   2    1.101323    1.278131    0.547212    11.00000    0.06201    0.05255 =
         0.13723   -0.02598    0.00076    0.00611
N12   2    1.437422    0.663813    0.202547    11.00000    0.07336    0.05190 =
         0.04463   -0.00834    0.00188    0.01954
HKLF 4

REM  tct_012 in P2(1)
REM R1 =  0.0635 for     775 Fo > 4sig(Fo)  and  0.0744 for all     967 data
REM    217 parameters refined using     13 restraints

END

WGHT      0.1143      0.2059

REM Highest difference peak  0.189,  deepest hole -0.198,  1-sigma level  0.049
Q1    1   1.3779  1.1866  0.5011  11.00000  0.05    0.19
Q2    1   0.6430  0.6966  0.5565  11.00000  0.05    0.17
Q3    1  -0.2489  0.9784  0.8314  11.00000  0.05    0.17
Q4    1   0.4170  0.9625  0.1144  11.00000  0.05    0.16
Q5    1   0.8583  1.1769  0.1297  11.00000  0.05    0.15
;
_shelx_res_checksum              3053
loop_
_space_group_symop_operation_xyz
'x, y, z'
'-x, y+1/2, -z'
loop_
_atom_site_label
_atom_site_type_symbol
_atom_site_fract_x
_atom_site_fract_y
_atom_site_fract_z
_atom_site_U_iso_or_equiv
_atom_site_adp_type
_atom_site_occupancy
_atom_site_site_symmetry_order
_atom_site_calc_flag
_atom_site_refinement_flags_adp
C1 C 0.5163(14) 0.7788(9) 0.818(3) 0.051(14) Uani 1 1 d .
C2 C 0.4852(14) 0.9107(9) 0.622(3) 0.053(16) Uani 1 1 d .
C3 C 0.2649(11) 0.8904(9) 0.765(3) 0.063(14) Uani 1 1 d .
C4 C 0.0887(12) 0.9284(9) 0.803(3) 0.088(17) Uani 1 1 d .
C5 C 0.6289(13) 0.6858(9) 0.906(3) 0.069(16) Uani 1 1 d .
C6 C 0.5524(18) 0.9806(15) 0.496(5) 0.09(2) Uani 1 1 d .
N1 N 0.3560(11) 0.8104(8) 0.863(3) 0.058(13) Uani 1 1 d .
N2 N 0.5864(12) 0.8263(9) 0.697(3) 0.057(14) Uani 1 1 d .
N3 N 0.3171(12) 0.9448(9) 0.642(3) 0.053(14) Uani 1 1 d .
N4 N -0.0537(14) 0.9604(12) 0.821(4) 0.095(19) Uani 1 1 d .
N5 N 0.7280(14) 0.6170(9) 0.972(3) 0.068(15) Uani 1 1 d .
N6 N 0.614(2) 1.047(2) 0.404(5) 0.13(3) Uani 1 1 d .
C7 C 1.0939(12) 1.0731(10) 0.347(3) 0.059(17) Uani 1 1 d .
C8 C 1.1881(14) 0.8629(9) 0.235(3) 0.050(16) Uani 1 1 d .
C9 C 0.9365(13) 0.9674(9) 0.172(3) 0.068(14) Uani 1 1 d .
C10 C 0.7748(13) 0.9652(9) 0.102(3) 0.061(14) Uani 1 1 d .
C11 C 1.1050(16) 1.1885(13) 0.461(4) 0.08(2) Uani 1 1 d .
C12 C 1.3271(15) 0.7493(10) 0.214(4) 0.047(10) Uani 1 1 d U
N7 N 0.9540(11) 1.0859(8) 0.276(3) 0.075(13) Uani 1 1 d .
N8 N 1.2170(11) 0.9647(9) 0.339(3) 0.051(14) Uani 1 1 d .
N9 N 1.0499(12) 0.8526(7) 0.154(3) 0.068(14) Uani 1 1 d .
N10 N 0.6401(15) 0.9621(11) 0.055(4) 0.098(18) Uani 1 1 d .
N11 N 1.1013(16) 1.2781(13) 0.547(4) 0.08(2) Uani 1 1 d .
N12 N 1.4374(15) 0.6638(11) 0.203(3) 0.057(10) Uani 1 1 d U
loop_
_atom_site_aniso_label
_atom_site_aniso_U_11
_atom_site_aniso_U_22
_atom_site_aniso_U_33
_atom_site_aniso_U_23
_atom_site_aniso_U_13
_atom_site_aniso_U_12
C1 0.049(5) 0.023(4) 0.08(5) 0.001(6) -0.009(10) -0.003(3)
C2 0.054(5) 0.027(4) 0.08(5) 0.002(7) 0.001(10) 0.000(3)
C3 0.036(4) 0.024(4) 0.13(5) 0.003(7) -0.010(8) 0.001(2)
C4 0.037(5) 0.030(4) 0.20(5) -0.005(7) -0.002(9) 0.002(2)
C5 0.043(5) 0.030(4) 0.14(5) 0.004(7) 0.006(9) 0.003(3)
C6 0.055(7) 0.054(6) 0.17(7) 0.028(12) 0.021(14) 0.015(5)
N1 0.042(4) 0.030(3) 0.10(4) 0.010(6) 0.000(8) 0.001(2)
N2 0.046(4) 0.032(4) 0.09(4) -0.004(7) 0.001(8) 0.002(3)
N3 0.047(4) 0.035(4) 0.08(5) 0.003(7) -0.012(8) 0.002(3)
N4 0.050(5) 0.057(5) 0.18(6) -0.015(11) -0.004(10) 0.006(4)
N5 0.057(5) 0.037(4) 0.11(5) 0.006(6) 0.013(10) 0.010(3)
N6 0.063(8) 0.112(11) 0.21(9) 0.08(2) 0.035(17) 0.034(7)
C7 0.045(5) 0.031(4) 0.10(6) 0.002(8) -0.015(9) -0.004(3)
C8 0.053(5) 0.026(4) 0.07(5) 0.000(8) -0.017(10) 0.000(3)
C9 0.048(5) 0.022(4) 0.13(4) -0.008(7) -0.002(8) -0.003(2)
C10 0.047(5) 0.030(4) 0.11(5) 0.001(7) -0.010(9) 0.003(3)
C11 0.055(6) 0.036(6) 0.15(7) -0.013(10) 0.010(12) 0.006(3)
C12 0.057(5) 0.038(4) 0.05(3) 0.001(7) -0.006(9) 0.004(3)
N7 0.044(4) 0.026(3) 0.16(4) -0.001(6) 0.015(8) 0.003(2)
N8 0.051(5) 0.032(4) 0.07(4) -0.003(7) -0.005(8) 0.004(2)
N9 0.049(4) 0.027(3) 0.13(5) 0.000(6) 0.002(8) 0.001(2)
N10 0.065(7) 0.040(4) 0.19(6) -0.020(9) -0.010(11) 0.009(3)
N11 0.062(7) 0.053(6) 0.14(7) -0.026(11) 0.001(12) 0.006(4)
N12 0.073(6) 0.052(5) 0.04(3) -0.008(9) 0.002(10) 0.020(4)
loop_
_atom_type_symbol
_atom_type_description
_atom_type_scat_dispersion_real
_atom_type_scat_dispersion_imag
_atom_type_scat_source
C C -0.0001 0.0005 'International Tables Vol C Tables 4.2.6.8 and 6.1.1.4'
N N 0.0004 0.0010 'International Tables Vol C Tables 4.2.6.8 and 6.1.1.4'
loop_
_geom_angle_atom_site_label_1
_geom_angle_atom_site_label_2
_geom_angle_atom_site_label_3
_geom_angle
N2 C1 N1 126.4(19)
N2 C1 C5 114.6(13)
N1 C1 C5 119(2)
N2 C2 N3 129(2)
N2 C2 C6 118.2(14)
N3 C2 C6 112.6(19)
N3 C3 N1 128.6(11)
N3 C3 C4 115.3(19)
N1 C3 C4 116(2)
N4 C4 C3 174(4)
N5 C5 C1 175.3(16)
N6 C6 C2 173(4)
C1 N1 C3 112(2)
C2 N2 C1 113.5(13)
C3 N3 C2 110.4(19)
N7 C7 N8 129(2)
N7 C7 C11 112.6(11)
N8 C7 C11 117.7(19)
N9 C8 N8 127.6(11)
N9 C8 C12 119(2)
N8 C8 C12 113.8(18)
N9 C9 N7 123.0(18)
N9 C9 C10 121.2(18)
N7 C9 C10 115.1(11)
N10 C10 C9 175(3)
N11 C11 C7 175.1(13)
N12 C12 C8 177(3)
C7 N7 C9 113.0(11)
C8 N8 C7 111.8(17)
C9 N9 C8 114.8(18)
loop_
_geom_bond_atom_site_label_1
_geom_bond_atom_site_label_2
_geom_bond_distance
C1 N2 1.33(4)
C1 N1 1.345(16)
C1 C5 1.45(3)
C2 N2 1.28(3)
C2 N3 1.354(15)
C2 C6 1.43(4)
C3 N3 1.32(4)
C3 N1 1.35(3)
C3 C4 1.452(16)
C4 N4 1.153(14)
C5 N5 1.15(3)
C6 N6 1.15(5)
C7 N7 1.29(3)
C7 N8 1.329(12)
C7 C11 1.46(4)
C8 N9 1.33(3)
C8 N8 1.33(3)
C8 C12 1.461(15)
C9 N9 1.324(12)
C9 N7 1.41(3)
C9 C10 1.43(2)
C10 N10 1.14(2)
C11 N11 1.12(4)
C12 N12 1.128(14)
