#------------------------------------------------------------------------------
#$Date: 2019-11-07 21:59:08 +0200 (Thu, 07 Nov 2019) $
#$Revision: 223670 $
#$URL: file:///home/coder/svn-repositories/cod/cif/7/23/24/7232407.cif $
#------------------------------------------------------------------------------
#
# This file is available in the Crystallography Open Database (COD),
# http://www.crystallography.net/
#
# All data on this site have been placed in the public domain by the
# contributors.
#
data_7232407
loop_
_publ_author_name
'Fanetti, Samuele'
'Nobrega, Marcelo M.'
'Dziubek, Kamil'
'Citroni, Margherita'
'Sella, Andrea'
'McMillan, Paul F.'
'Hanfland, Michael'
'Bini, Roberto'
_publ_section_title
;
 Structure and reactivity of 2,4,6-tricyano-1,3,5-triazine under
 high-pressure conditions
;
_journal_issue                   30
_journal_name_full               CrystEngComm
_journal_page_first              4493
_journal_paper_doi               10.1039/C8CE02154F
_journal_volume                  21
_journal_year                    2019
_chemical_formula_moiety         'C6 N6'
_chemical_formula_sum            'C6 N6'
_chemical_formula_weight         156.12
_chemical_melting_point          393.15
_chemical_name_common            2,4,6-tricyano-1,3,5-triazine
_chemical_name_systematic        1,3,5-triazine-2,4,6-tricarbonitrile
_chemical_properties_physical    Moisture-sensitive
_space_group_crystal_system      monoclinic
_space_group_IT_number           4
_space_group_name_Hall           'P 2yb'
_space_group_name_H-M_alt        'P 1 21 1'
_symmetry_space_group_name_Hall  'P 2yb'
_symmetry_space_group_name_H-M   'P 1 21 1'
_audit_creation_method           'SHELXL-2016/6 (Sheldrick, 2016)'
_audit_update_record
;
2019-02-08 deposited with the CCDC.    2019-02-20 downloaded from the CCDC.
;
_cell_angle_alpha                90
_cell_angle_beta                 90.266(7)
_cell_angle_gamma                90
_cell_formula_units_Z            4
_cell_length_a                   8.0397(2)
_cell_length_b                   8.7626(2)
_cell_length_c                   9.644(3)
_cell_measurement_reflns_used    240
_cell_measurement_temperature    293(2)
_cell_measurement_theta_max      13.5700
_cell_measurement_theta_min      1.9860
_cell_volume                     679.4(2)
_computing_cell_refinement       'CrysAlisPro (Agilent Technologies, 2013)'
_computing_data_reduction        'CrysAlisPro (Agilent Technologies, 2013)'
_computing_structure_refinement  'SHELXL-2016/6 (Sheldrick, 2016)'
_computing_structure_solution    'SHELXT-2015 (Sheldrick, 2015)'
_diffrn_ambient_pressure         625000
_diffrn_ambient_temperature      293(2)
_diffrn_detector_area_resol_mean 7
_diffrn_measured_fraction_theta_full 0.354
_diffrn_measured_fraction_theta_max 0.205
_diffrn_measurement_device_type  'ID15B beamline, ESRF'
_diffrn_measurement_method       'omega scans'
_diffrn_radiation_type           synchrotron
_diffrn_radiation_wavelength     0.41112
_diffrn_reflns_av_R_equivalents  0.0304
_diffrn_reflns_av_unetI/netI     0.0561
_diffrn_reflns_Laue_measured_fraction_full 0.354
_diffrn_reflns_Laue_measured_fraction_max 0.205
_diffrn_reflns_limit_h_max       11
_diffrn_reflns_limit_h_min       -11
_diffrn_reflns_limit_k_max       11
_diffrn_reflns_limit_k_min       -11
_diffrn_reflns_limit_l_max       4
_diffrn_reflns_limit_l_min       -4
_diffrn_reflns_number            1480
_diffrn_reflns_point_group_measured_fraction_full 0.326
_diffrn_reflns_point_group_measured_fraction_max 0.174
_diffrn_reflns_theta_full        14.281
_diffrn_reflns_theta_max         19.808
_diffrn_reflns_theta_min         1.465
_diffrn_source                   synchrotron
_exptl_absorpt_coefficient_mu    0.044
_exptl_absorpt_correction_T_max  1.00000
_exptl_absorpt_correction_T_min  0.26249
_exptl_absorpt_correction_type   multi-scan
_exptl_absorpt_process_details
;
CrysAlisPro 1.171.39.46 (Rigaku Oxford Diffraction, 2018)
Empirical absorption correction using spherical harmonics,
 implemented in SCALE3 ABSPACK scaling algorithm.
;
_exptl_crystal_colour            colourless
_exptl_crystal_density_diffrn    1.526
_exptl_crystal_description       block
_exptl_crystal_F_000             312
_exptl_crystal_recrystallization_method Sublimation
_exptl_crystal_size_max          0.015
_exptl_crystal_size_mid          0.015
_exptl_crystal_size_min          0.015
_refine_diff_density_max         0.255
_refine_diff_density_min         -0.282
_refine_diff_density_rms         0.087
_refine_ls_abs_structure_details
;
 Flack x determined using 231 quotients [(I+)-(I-)]/[(I+)+(I-)]
 (Parsons, Flack and Wagner, Acta Cryst. B69 (2013) 249-259).
;
_refine_ls_abs_structure_Flack   -10.0(10)
_refine_ls_extinction_method     none
_refine_ls_goodness_of_fit_ref   1.086
_refine_ls_hydrogen_treatment    undef
_refine_ls_matrix_type           full
_refine_ls_number_parameters     217
_refine_ls_number_reflns         1112
_refine_ls_number_restraints     145
_refine_ls_restrained_S_all      1.041
_refine_ls_R_factor_all          0.1025
_refine_ls_R_factor_gt           0.0781
_refine_ls_shift/su_max          0.472
_refine_ls_shift/su_mean         0.115
_refine_ls_structure_factor_coef Fsqd
_refine_ls_weighting_details
'w=1/[\s^2^(Fo^2^)+(0.1634P)^2^+0.0091P] where P=(Fo^2^+2Fc^2^)/3'
_refine_ls_weighting_scheme      calc
_refine_ls_wR_factor_gt          0.2111
_refine_ls_wR_factor_ref         0.2579
_reflns_Friedel_coverage         0.614
_reflns_Friedel_fraction_full    0.295
_reflns_Friedel_fraction_max     0.140
_reflns_number_gt                694
_reflns_number_total             1112
_reflns_threshold_expression     'I > 2\s(I)'
_cod_data_source_file            c8ce02154f1.cif
_cod_data_source_block           TCT_I_0_63_GPa
_cod_depositor_comments
'Adding full bibliography for 7232397--7232407.cif.'
_cod_database_code               7232407
_shelx_shelxl_version_number     2016/6
_shelx_space_group_comment
;
The symmetry employed for this shelxl refinement is uniquely defined
by the following loop, which should always be used as a source of
symmetry information in preference to the above space-group names.
They are only intended as comments.
;
_oxdiff_exptl_absorpt_empirical_full_min 0.542
_oxdiff_exptl_absorpt_empirical_full_max 2.324
_oxdiff_exptl_absorpt_empirical_details
;
Empirical correction (ABSPACK) includes:
- Absorption correction using spherical harmonics
- Frame scaling
;
_shelx_res_file
;

    tct_008.res created by SHELXL-2014/7

TITL tct_008 in P2(1)
CELL 0.41112 8.0397 8.7626 9.6444 90 90.266 90
ZERR 4 0.0002 0.0002 0.0029 0 0.007 0
LATT -1
SYMM -X,0.5+Y,-Z
SFAC C N
DISP C -0.0001 0.0005 1.07
DISP N 0.0004 0.001 2.23
UNIT 24 24
ISOR 0.02 0.02

L.S. 99
PLAN  5
ACTA

OMIT 1 2 1
OMIT 0 2 0
OMIT -1 -3 -1

WGHT    0.163400    0.009100
FVAR       1.18134
C1    1    0.513628    0.777403    0.810301    11.00000    0.05637    0.03765 =
         0.06534   -0.00160    0.00207   -0.00268
C2    1    0.484695    0.914849    0.627391    11.00000    0.05884    0.04271 =
         0.08008   -0.00408    0.00091    0.00238
C3    1    0.270734    0.890001    0.767501    11.00000    0.05732    0.03313 =
         0.08158   -0.00150    0.00548    0.00147
C4    1    0.102975    0.925220    0.799952    11.00000    0.06322    0.04804 =
         0.07847    0.00296   -0.00259    0.00627
C5    1    0.615859    0.680781    0.894910    11.00000    0.06441    0.04248 =
         0.09805   -0.01060   -0.00518    0.00773
C6    1    0.552281    0.985731    0.519144    11.00000    0.05932    0.07557 =
         0.09049    0.02354    0.01873    0.00920
N1    2    0.357369    0.804424    0.859918    11.00000    0.05398    0.04206 =
         0.07108    0.00702    0.01123    0.00355
N2    2    0.585350    0.828388    0.700866    11.00000    0.05243    0.04985 =
         0.03409    0.00371    0.00944    0.00264
N3    2    0.327461    0.949787    0.650361    11.00000    0.05696    0.04583 =
         0.08929    0.00644    0.00055    0.00502
N4    2   -0.036980    0.955014    0.811945    11.00000    0.07547    0.10001 =
         0.11635   -0.00894    0.01546    0.02636
N5    2    0.709850    0.605193    0.959545    11.00000    0.06634    0.05759 =
         0.08514    0.00074    0.00981    0.01402
N6    2    0.614305    1.048930    0.421065    11.00000    0.06376    0.12620 =
         0.09523    0.03328    0.01312    0.01910
C7    1    1.086734    1.071069    0.344844    11.00000    0.06829    0.03674 =
         0.10045    0.00214   -0.00250   -0.00536
C8    1    1.179086    0.867688    0.244034    11.00000    0.06772    0.03729 =
         0.07548    0.00320   -0.01828   -0.00503
C9    1    0.938692    0.965935    0.178728    11.00000    0.06517    0.03445 =
         0.09931   -0.00072   -0.02130   -0.00467
C10   1    0.785236    0.961541    0.101969    11.00000    0.06590    0.04742 =
         0.09167   -0.01069   -0.00349    0.00125
C11   1    1.101244    1.185336    0.464886    11.00000    0.06520    0.05361 =
         0.05170    0.00793    0.01356    0.00157
C12   1    1.317405    0.758771    0.221189    11.00000    0.07860    0.04383 =
         0.04545   -0.00706   -0.01333    0.00183
N7    2    0.950468    1.080661    0.274956    11.00000    0.06283    0.03874 =
         0.09298    0.00316   -0.00155    0.00136
N8    2    1.207382    0.968643    0.344340    11.00000    0.06339    0.04813 =
         0.08266   -0.00733    0.00719    0.00146
N9    2    1.048214    0.856797    0.157246    11.00000    0.06285    0.04130 =
         0.09242   -0.00916    0.00222   -0.00285
N10   2    0.661044    0.954036    0.055049    11.00000    0.09195    0.06172 =
         0.12748   -0.01696   -0.01355    0.00605
N11   2    1.100193    1.274963    0.540813    11.00000    0.07631    0.06549 =
         0.07950   -0.01672    0.00493   -0.00404
N12   2    1.418094    0.674138    0.212740    11.00000    0.08164    0.06320 =
         0.06467   -0.00165   -0.01173    0.01623
HKLF 4

REM  tct_008 in P2(1)
REM R1 =  0.0781 for     694 Fo > 4sig(Fo)  and  0.1025 for all    1112 data
REM    217 parameters refined using    145 restraints

END

WGHT      0.1627      0.0112

REM Highest difference peak  0.255,  deepest hole -0.282,  1-sigma level  0.087
Q1    1   0.3082  0.9542  0.5680  11.00000  0.05    0.25
Q2    1   1.2675  1.2841  0.4388  11.00000  0.05    0.24
Q3    1   0.8029  1.1205  0.5463  11.00000  0.05    0.21
Q4    1   1.2283  0.9579  0.4446  11.00000  0.05    0.21
Q5    1   1.0497  0.7779  0.3063  11.00000  0.05    0.21
;
_shelx_res_checksum              54581
loop_
_space_group_symop_operation_xyz
'x, y, z'
'-x, y+1/2, -z'
loop_
_atom_site_label
_atom_site_type_symbol
_atom_site_fract_x
_atom_site_fract_y
_atom_site_fract_z
_atom_site_U_iso_or_equiv
_atom_site_adp_type
_atom_site_occupancy
_atom_site_site_symmetry_order
_atom_site_calc_flag
_atom_site_refinement_flags_adp
C1 C 0.5136(15) 0.7774(11) 0.810(4) 0.053(10) Uani 1 1 d U
C2 C 0.4847(15) 0.9148(11) 0.627(4) 0.061(10) Uani 1 1 d U
C3 C 0.2707(13) 0.8900(10) 0.768(4) 0.057(9) Uani 1 1 d U
C4 C 0.1030(15) 0.9252(12) 0.800(4) 0.063(10) Uani 1 1 d U
C5 C 0.6159(17) 0.6808(11) 0.895(4) 0.068(10) Uani 1 1 d U
C6 C 0.5523(18) 0.9857(17) 0.519(5) 0.075(11) Uani 1 1 d U
N1 N 0.3574(12) 0.8044(9) 0.860(3) 0.056(9) Uani 1 1 d U
N2 N 0.5853(12) 0.8284(9) 0.701(3) 0.045(9) Uani 1 1 d U
N3 N 0.3275(13) 0.9498(10) 0.650(3) 0.064(9) Uani 1 1 d U
N4 N -0.0370(18) 0.9550(19) 0.812(4) 0.097(11) Uani 1 1 d U
N5 N 0.7099(15) 0.6052(12) 0.960(4) 0.070(10) Uani 1 1 d U
N6 N 0.6143(19) 1.049(2) 0.421(6) 0.095(12) Uani 1 1 d U
C7 C 1.0867(16) 1.0711(11) 0.345(4) 0.069(10) Uani 1 1 d U
C8 C 1.1791(16) 0.8677(10) 0.244(4) 0.060(10) Uani 1 1 d U
C9 C 0.9387(15) 0.9659(11) 0.179(4) 0.066(10) Uani 1 1 d U
C10 C 0.7852(17) 0.9615(12) 0.102(4) 0.068(10) Uani 1 1 d U
C11 C 1.1012(17) 1.1853(14) 0.465(5) 0.057(11) Uani 1 1 d U
C12 C 1.3174(19) 0.7588(12) 0.221(4) 0.056(10) Uani 1 1 d U
N7 N 0.9505(13) 1.0807(9) 0.275(3) 0.065(9) Uani 1 1 d U
N8 N 1.2074(14) 0.9686(11) 0.344(3) 0.065(10) Uani 1 1 d U
N9 N 1.0482(14) 0.8568(9) 0.157(3) 0.066(10) Uani 1 1 d U
N10 N 0.6610(18) 0.9540(14) 0.055(4) 0.094(11) Uani 1 1 d U
N11 N 1.1002(17) 1.2750(15) 0.541(4) 0.074(11) Uani 1 1 d U
N12 N 1.4181(16) 0.6741(12) 0.213(4) 0.070(10) Uani 1 1 d U
loop_
_atom_site_aniso_label
_atom_site_aniso_U_11
_atom_site_aniso_U_22
_atom_site_aniso_U_33
_atom_site_aniso_U_23
_atom_site_aniso_U_13
_atom_site_aniso_U_12
C1 0.056(6) 0.038(4) 0.07(3) -0.002(8) 0.002(10) -0.003(3)
C2 0.059(5) 0.043(5) 0.08(3) -0.004(8) 0.001(11) 0.002(3)
C3 0.057(5) 0.033(4) 0.08(3) -0.002(8) 0.005(10) 0.001(3)
C4 0.063(6) 0.048(5) 0.08(3) 0.003(9) -0.003(11) 0.006(4)
C5 0.064(6) 0.042(5) 0.10(3) -0.011(8) -0.005(11) 0.008(4)
C6 0.059(7) 0.076(7) 0.09(3) 0.024(12) 0.019(13) 0.009(5)
N1 0.054(5) 0.042(4) 0.07(3) 0.007(7) 0.011(8) 0.004(3)
N2 0.052(4) 0.050(4) 0.03(3) 0.004(7) 0.009(8) 0.003(3)
N3 0.057(5) 0.046(4) 0.09(3) 0.006(8) 0.001(9) 0.005(3)
N4 0.075(7) 0.100(8) 0.12(3) -0.009(13) 0.015(13) 0.026(6)
N5 0.066(6) 0.058(4) 0.09(3) 0.001(9) 0.010(12) 0.014(4)
N6 0.064(7) 0.126(11) 0.10(3) 0.033(16) 0.013(13) 0.019(7)
C7 0.068(6) 0.037(4) 0.10(3) 0.002(9) -0.003(11) -0.005(4)
C8 0.068(6) 0.037(5) 0.08(3) 0.003(8) -0.018(11) -0.005(4)
C9 0.065(6) 0.034(4) 0.10(3) -0.001(8) -0.021(10) -0.005(3)
C10 0.066(6) 0.047(5) 0.09(3) -0.011(9) -0.003(12) 0.001(4)
C11 0.065(6) 0.054(7) 0.05(3) 0.008(11) 0.014(11) 0.002(4)
C12 0.079(8) 0.044(5) 0.05(3) -0.007(8) -0.013(13) 0.002(4)
N7 0.063(5) 0.039(4) 0.09(3) 0.003(7) -0.002(9) 0.001(3)
N8 0.063(6) 0.048(4) 0.08(3) -0.007(8) 0.007(10) 0.001(3)
N9 0.063(5) 0.041(4) 0.09(3) -0.009(7) 0.002(9) -0.003(3)
N10 0.092(8) 0.062(6) 0.13(3) -0.017(11) -0.014(14) 0.006(5)
N11 0.076(7) 0.065(6) 0.08(3) -0.017(11) 0.005(12) -0.004(5)
N12 0.082(7) 0.063(6) 0.06(3) -0.002(9) -0.012(12) 0.016(5)
loop_
_atom_type_symbol
_atom_type_description
_atom_type_scat_dispersion_real
_atom_type_scat_dispersion_imag
_atom_type_scat_source
C C -0.0001 0.0005 'International Tables Vol C Tables 4.2.6.8 and 6.1.1.4'
N N 0.0004 0.0010 'International Tables Vol C Tables 4.2.6.8 and 6.1.1.4'
loop_
_geom_angle_atom_site_label_1
_geom_angle_atom_site_label_2
_geom_angle_atom_site_label_3
_geom_angle
N2 C1 N1 130(2)
N2 C1 C5 114.5(15)
N1 C1 C5 115(2)
N3 C2 N2 129(2)
N3 C2 C6 115(2)
N2 C2 C6 116.0(14)
N3 C3 N1 126.9(11)
N3 C3 C4 116(2)
N1 C3 C4 117(3)
N4 C4 C3 173(4)
N5 C5 C1 175(2)
N6 C6 C2 179.5(18)
C3 N1 C1 110(2)
C1 N2 C2 111.5(14)
C2 N3 C3 112.6(19)
N7 C7 N8 132(2)
N7 C7 C11 114.5(14)
N8 C7 C11 113(2)
N8 C8 N9 129.1(13)
N8 C8 C12 114(2)
N9 C8 C12 117(2)
N9 C9 N7 126(2)
N9 C9 C10 118(2)
N7 C9 C10 115.1(14)
N10 C10 C9 173(4)
N11 C11 C7 172(3)
N12 C12 C8 175(4)
C7 N7 C9 111.3(13)
C7 N8 C8 109(2)
C9 N9 C8 112(2)
loop_
_geom_bond_atom_site_label_1
_geom_bond_atom_site_label_2
_geom_bond_distance
C1 N2 1.29(4)
C1 N1 1.37(2)
C1 C5 1.43(3)
C2 N3 1.320(17)
C2 N2 1.31(3)
C2 C6 1.33(4)
C3 N3 1.33(4)
C3 N1 1.36(3)
C3 C4 1.420(18)
C4 N4 1.161(17)
C5 N5 1.18(3)
C6 N6 1.21(5)
C7 N7 1.29(3)
C7 N8 1.322(16)
C7 C11 1.53(4)
C8 N8 1.33(4)
C8 N9 1.34(3)
C8 C12 1.483(18)
C9 N9 1.317(16)
C9 N7 1.37(3)
C9 C10 1.44(3)
C10 N10 1.10(3)
C11 N11 1.07(4)
C12 N12 1.101(17)
