#------------------------------------------------------------------------------
#$Date: 2019-11-07 21:59:08 +0200 (Thu, 07 Nov 2019) $
#$Revision: 223670 $
#$URL: file:///home/coder/svn-repositories/cod/cif/7/23/24/7232406.cif $
#------------------------------------------------------------------------------
#
# This file is available in the Crystallography Open Database (COD),
# http://www.crystallography.net/
#
# All data on this site have been placed in the public domain by the
# contributors.
#
data_7232406
loop_
_publ_author_name
'Fanetti, Samuele'
'Nobrega, Marcelo M.'
'Dziubek, Kamil'
'Citroni, Margherita'
'Sella, Andrea'
'McMillan, Paul F.'
'Hanfland, Michael'
'Bini, Roberto'
_publ_section_title
;
 Structure and reactivity of 2,4,6-tricyano-1,3,5-triazine under
 high-pressure conditions
;
_journal_issue                   30
_journal_name_full               CrystEngComm
_journal_page_first              4493
_journal_paper_doi               10.1039/C8CE02154F
_journal_volume                  21
_journal_year                    2019
_chemical_formula_moiety         'C6 N6'
_chemical_formula_sum            'C6 N6'
_chemical_formula_weight         156.12
_chemical_melting_point          393.15
_chemical_name_common            2,4,6-tricyano-1,3,5-triazine
_chemical_name_systematic        1,3,5-triazine-2,4,6-tricarbonitrile
_chemical_properties_physical    Moisture-sensitive
_space_group_crystal_system      monoclinic
_space_group_IT_number           4
_space_group_name_Hall           'P 2yb'
_space_group_name_H-M_alt        'P 1 21 1'
_symmetry_space_group_name_Hall  'P 2yb'
_symmetry_space_group_name_H-M   'P 1 21 1'
_audit_creation_method           'SHELXL-2016/6 (Sheldrick, 2016)'
_audit_update_record
;
2019-02-08 deposited with the CCDC.    2019-02-20 downloaded from the CCDC.
;
_cell_angle_alpha                90
_cell_angle_beta                 89.910(8)
_cell_angle_gamma                90
_cell_formula_units_Z            4
_cell_length_a                   7.8138(2)
_cell_length_b                   8.5286(2)
_cell_length_c                   9.499(4)
_cell_measurement_reflns_used    274
_cell_measurement_temperature    293(2)
_cell_measurement_theta_max      14.8600
_cell_measurement_theta_min      2.0490
_cell_volume                     633.0(3)
_computing_cell_refinement       'CrysAlisPro (Agilent Technologies, 2018)'
_computing_data_reduction        'CrysAlisPro (Agilent Technologies, 2018)'
_computing_structure_refinement  'SHELXL-2016/6 (Sheldrick, 2016)'
_computing_structure_solution    'SHELXT-2015 (Sheldrick, 2015)'
_diffrn_ambient_pressure         1700000
_diffrn_ambient_temperature      293(2)
_diffrn_detector_area_resol_mean 7
_diffrn_measured_fraction_theta_full 0.344
_diffrn_measured_fraction_theta_max 0.225
_diffrn_measurement_device_type  'ID15B beamline, ESRF'
_diffrn_measurement_method       'omega scans'
_diffrn_radiation_type           synchrotron
_diffrn_radiation_wavelength     0.41112
_diffrn_reflns_av_R_equivalents  0.0252
_diffrn_reflns_av_unetI/netI     0.0554
_diffrn_reflns_Laue_measured_fraction_full 0.344
_diffrn_reflns_Laue_measured_fraction_max 0.225
_diffrn_reflns_limit_h_max       10
_diffrn_reflns_limit_h_min       -10
_diffrn_reflns_limit_k_max       10
_diffrn_reflns_limit_k_min       -10
_diffrn_reflns_limit_l_max       4
_diffrn_reflns_limit_l_min       -4
_diffrn_reflns_number            1353
_diffrn_reflns_point_group_measured_fraction_full 0.318
_diffrn_reflns_point_group_measured_fraction_max 0.191
_diffrn_reflns_theta_full        14.281
_diffrn_reflns_theta_max         19.082
_diffrn_reflns_theta_min         2.045
_diffrn_source                   synchrotron
_exptl_absorpt_coefficient_mu    0.047
_exptl_absorpt_correction_T_max  1.00000
_exptl_absorpt_correction_T_min  0.96813
_exptl_absorpt_correction_type   multi-scan
_exptl_absorpt_process_details
;
CrysAlisPro 1.171.39.46 (Rigaku Oxford Diffraction, 2018)
Empirical absorption correction using spherical harmonics,
 implemented in SCALE3 ABSPACK scaling algorithm.
;
_exptl_crystal_colour            colourless
_exptl_crystal_density_diffrn    1.638
_exptl_crystal_description       block
_exptl_crystal_F_000             312
_exptl_crystal_recrystallization_method Sublimation
_exptl_crystal_size_max          0.015
_exptl_crystal_size_mid          0.015
_exptl_crystal_size_min          0.015
_refine_diff_density_max         0.130
_refine_diff_density_min         -0.157
_refine_diff_density_rms         0.033
_refine_ls_abs_structure_details
;
 Flack x determined using 256 quotients [(I+)-(I-)]/[(I+)+(I-)]
 (Parsons, Flack and Wagner, Acta Cryst. B69 (2013) 249-259).
;
_refine_ls_abs_structure_Flack   -8.2(10)
_refine_ls_extinction_method     none
_refine_ls_goodness_of_fit_ref   1.090
_refine_ls_hydrogen_treatment    undef
_refine_ls_matrix_type           full
_refine_ls_number_parameters     217
_refine_ls_number_reflns         1025
_refine_ls_number_restraints     1
_refine_ls_restrained_S_all      1.089
_refine_ls_R_factor_all          0.0717
_refine_ls_R_factor_gt           0.0522
_refine_ls_shift/su_max          0.000
_refine_ls_shift/su_mean         0.000
_refine_ls_structure_factor_coef Fsqd
_refine_ls_weighting_details
'w=1/[\s^2^(Fo^2^)+(0.0594P)^2^+0.4002P] where P=(Fo^2^+2Fc^2^)/3'
_refine_ls_weighting_scheme      calc
_refine_ls_wR_factor_gt          0.1297
_refine_ls_wR_factor_ref         0.1533
_reflns_Friedel_coverage         0.614
_reflns_Friedel_fraction_full    0.288
_reflns_Friedel_fraction_max     0.154
_reflns_number_gt                747
_reflns_number_total             1025
_reflns_threshold_expression     'I > 2\s(I)'
_cod_data_source_file            c8ce02154f1.cif
_cod_data_source_block           TCT_I_1_70_GPa
_cod_depositor_comments
'Adding full bibliography for 7232397--7232407.cif.'
_cod_database_code               7232406
_shelx_shelxl_version_number     2016/6
_shelx_space_group_comment
;
The symmetry employed for this shelxl refinement is uniquely defined
by the following loop, which should always be used as a source of
symmetry information in preference to the above space-group names.
They are only intended as comments.
;
_oxdiff_exptl_absorpt_empirical_full_min 0.916
_oxdiff_exptl_absorpt_empirical_full_max 1.076
_oxdiff_exptl_absorpt_empirical_details
;
Empirical correction (ABSPACK) includes:
- Absorption correction using spherical harmonics
- Frame scaling
;
_shelx_res_file
;

    tct_011_inv_1.res created by SHELXL-2014/7

TITL tct_011 in P2(1)
REM P2(1) (#4 with fixed user cell (not necessary: std = user cell)
CELL 0.41112 7.813785 8.528583 9.499153 90 89.9096 90
ZERR 4 0.000229 0.000223 0.003844 0 0.0081 0
LATT -1
SYMM -X,0.5+Y,-Z
SFAC C N
DISP C -0.0001 0.0005 1.07
DISP N 0.0004 0.001 2.23
UNIT 24 24

L.S. 99
PLAN 5
ACTA

OMIT 1 3 1
OMIT 1 2 1

WGHT    0.059400    0.400200
FVAR      11.08479
C1    1    0.515574    0.778586    0.819027    11.00000    0.04717    0.02169 =
         0.10933    0.00603    0.00512   -0.00083
C2    1    0.485702    0.911294    0.618735    11.00000    0.05686    0.02369 =
         0.14049    0.00339    0.01406    0.00187
C3    1    0.267816    0.890099    0.767830    11.00000    0.04364    0.02111 =
         0.08978    0.00678   -0.00099   -0.00012
C4    1    0.089649    0.927611    0.799775    11.00000    0.04709    0.03035 =
         0.14617   -0.00413   -0.00297    0.00037
C5    1    0.625694    0.685388    0.904267    11.00000    0.04132    0.02949 =
         0.13387    0.00127    0.00675    0.00256
C6    1    0.552561    0.982108    0.495953    11.00000    0.05761    0.04867 =
         0.27023    0.03503    0.02519    0.01597
N1    2    0.355309    0.809098    0.862665    11.00000    0.04160    0.02948 =
         0.07587   -0.00003   -0.00121    0.00107
N2    2    0.584385    0.825583    0.698747    11.00000    0.04969    0.03208 =
         0.09185    0.00268    0.01118    0.00045
N3    2    0.317961    0.944622    0.648508    11.00000    0.05066    0.03206 =
         0.10674   -0.00185   -0.00674    0.00510
N4    2   -0.051293    0.961603    0.815079    11.00000    0.05392    0.06022 =
         0.15077   -0.01052    0.00555    0.01136
N5    2    0.725932    0.613898    0.971049    11.00000    0.05384    0.04132 =
         0.09510    0.00807    0.01103    0.01163
N6    2    0.615167    1.048757    0.405637    11.00000    0.06369    0.10638 =
         0.23278    0.06715    0.02868    0.03108
C7    1    1.093004    1.072060    0.344957    11.00000    0.05251    0.02841 =
         0.10341   -0.00592   -0.00181   -0.00465
C8    1    1.187587    0.862781    0.234773    11.00000    0.06400    0.02516 =
         0.05695    0.00302   -0.01031   -0.00247
C9    1    0.938620    0.966776    0.174136    11.00000    0.04608    0.02592 =
         0.12497   -0.00383    0.00045   -0.00339
C10   1    0.776885    0.964888    0.101588    11.00000    0.05347    0.02766 =
         0.13605   -0.00587    0.00018    0.00460
C11   1    1.104609    1.188399    0.461805    11.00000    0.05492    0.03992 =
         0.14388   -0.00085    0.02589    0.00174
C12   1    1.326741    0.750701    0.210722    11.00000    0.05998    0.03469 =
         0.04271    0.00023   -0.00037    0.00116
N7    2    0.953500    1.083959    0.272873    11.00000    0.04175    0.02617 =
         0.16270   -0.00775    0.00923    0.00207
N8    2    1.215249    0.965425    0.338821    11.00000    0.05274    0.03296 =
         0.06032    0.00212    0.00258    0.00395
N9    2    1.049496    0.852758    0.155106    11.00000    0.05159    0.02859 =
         0.06877   -0.00378   -0.00708    0.00131
N10   2    0.644439    0.959708    0.053258    11.00000    0.06245    0.04451 =
         0.17901   -0.01851   -0.01088    0.00442
N11   2    1.101550    1.276935    0.550544    11.00000    0.07487    0.05428 =
         0.09803   -0.03639    0.00829    0.00219
N12   2    1.437258    0.666558    0.202174    11.00000    0.07014    0.04948 =
         0.05277   -0.00851    0.00677    0.01826
HKLF 4

REM  tct_011 in P2(1)
REM R1 =  0.0522 for     747 Fo > 4sig(Fo)  and  0.0717 for all    1025 data
REM    217 parameters refined using      1 restraints

END

WGHT      0.0594      0.4002

REM Highest difference peak  0.130,  deepest hole -0.157,  1-sigma level  0.033
Q1    1   0.7445  0.6756  0.8267  11.00000  0.05    0.13
Q2    1   0.4471  0.9636  0.1762  11.00000  0.05    0.12
Q3    1   0.8008  0.9903  0.5056  11.00000  0.05    0.11
Q4    1   1.3071  1.2188  0.5768  11.00000  0.05    0.11
Q5    1   0.6222  0.5039  0.8868  11.00000  0.05    0.11
;
_shelx_res_checksum              19179
loop_
_space_group_symop_operation_xyz
'x, y, z'
'-x, y+1/2, -z'
loop_
_atom_site_label
_atom_site_type_symbol
_atom_site_fract_x
_atom_site_fract_y
_atom_site_fract_z
_atom_site_U_iso_or_equiv
_atom_site_adp_type
_atom_site_occupancy
_atom_site_site_symmetry_order
_atom_site_calc_flag
C1 C 0.5156(12) 0.7786(9) 0.819(3) 0.059(14) Uani 1 1 d
C2 C 0.4857(13) 0.9113(9) 0.619(3) 0.074(16) Uani 1 1 d
C3 C 0.2678(11) 0.8901(8) 0.768(3) 0.052(13) Uani 1 1 d
C4 C 0.0896(12) 0.9276(8) 0.800(3) 0.075(16) Uani 1 1 d
C5 C 0.6257(12) 0.6854(9) 0.904(3) 0.068(15) Uani 1 1 d
C6 C 0.5526(17) 0.9821(14) 0.496(5) 0.13(2) Uani 1 1 d
N1 N 0.3553(10) 0.8091(7) 0.863(2) 0.049(12) Uani 1 1 d
N2 N 0.5844(11) 0.8256(8) 0.699(3) 0.058(14) Uani 1 1 d
N3 N 0.3180(11) 0.9446(9) 0.649(3) 0.063(14) Uani 1 1 d
N4 N -0.0513(12) 0.9616(11) 0.815(3) 0.088(17) Uani 1 1 d
N5 N 0.7259(11) 0.6139(8) 0.971(3) 0.063(14) Uani 1 1 d
N6 N 0.6152(17) 1.0488(18) 0.406(5) 0.13(3) Uani 1 1 d
C7 C 1.0930(12) 1.0721(9) 0.345(3) 0.061(16) Uani 1 1 d
C8 C 1.1876(14) 0.8628(9) 0.235(3) 0.049(15) Uani 1 1 d
C9 C 0.9386(11) 0.9668(9) 0.174(3) 0.066(13) Uani 1 1 d
C10 C 0.7769(13) 0.9649(9) 0.102(3) 0.072(15) Uani 1 1 d
C11 C 1.1046(15) 1.1884(12) 0.462(4) 0.08(2) Uani 1 1 d
C12 C 1.3267(13) 0.7507(9) 0.211(3) 0.046(15) Uani 1 1 d
N7 N 0.9535(10) 1.0840(8) 0.273(2) 0.077(13) Uani 1 1 d
N8 N 1.2152(10) 0.9654(8) 0.339(3) 0.049(13) Uani 1 1 d
N9 N 1.0495(11) 0.8528(7) 0.155(2) 0.050(13) Uani 1 1 d
N10 N 0.6444(13) 0.9597(10) 0.053(3) 0.095(18) Uani 1 1 d
N11 N 1.1016(14) 1.2769(12) 0.551(4) 0.076(19) Uani 1 1 d
N12 N 1.4373(13) 0.6666(9) 0.202(3) 0.057(15) Uani 1 1 d
loop_
_atom_site_aniso_label
_atom_site_aniso_U_11
_atom_site_aniso_U_22
_atom_site_aniso_U_33
_atom_site_aniso_U_23
_atom_site_aniso_U_13
_atom_site_aniso_U_12
C1 0.047(5) 0.022(4) 0.11(4) 0.006(6) 0.005(9) -0.001(2)
C2 0.057(5) 0.024(4) 0.14(5) 0.003(7) 0.014(11) 0.002(3)
C3 0.044(5) 0.021(4) 0.09(4) 0.007(6) -0.001(8) 0.000(3)
C4 0.047(5) 0.030(4) 0.15(5) -0.004(7) -0.003(10) 0.000(3)
C5 0.041(4) 0.029(4) 0.13(5) 0.001(7) 0.007(9) 0.003(3)
C6 0.058(7) 0.049(6) 0.27(7) 0.035(13) 0.025(15) 0.016(5)
N1 0.042(4) 0.029(3) 0.08(4) 0.000(5) -0.001(7) 0.001(2)
N2 0.050(4) 0.032(4) 0.09(4) 0.003(6) 0.011(8) 0.000(3)
N3 0.051(4) 0.032(4) 0.11(5) -0.002(7) -0.007(9) 0.005(3)
N4 0.054(5) 0.060(5) 0.15(6) -0.011(10) 0.006(10) 0.011(4)
N5 0.054(4) 0.041(4) 0.10(4) 0.008(6) 0.011(9) 0.012(3)
N6 0.064(8) 0.106(10) 0.23(8) 0.067(18) 0.029(16) 0.031(6)
C7 0.053(5) 0.028(4) 0.10(5) -0.006(8) -0.002(9) -0.005(3)
C8 0.064(6) 0.025(4) 0.06(5) 0.003(7) -0.010(10) -0.002(3)
C9 0.046(4) 0.026(4) 0.12(4) -0.004(7) 0.000(8) -0.003(2)
C10 0.053(5) 0.028(4) 0.14(5) -0.006(8) 0.000(10) 0.005(3)
C11 0.055(6) 0.040(6) 0.14(6) -0.001(10) 0.026(11) 0.002(4)
C12 0.060(6) 0.035(4) 0.04(5) 0.000(7) 0.000(10) 0.001(3)
N7 0.042(4) 0.026(3) 0.16(4) -0.008(6) 0.009(7) 0.002(2)
N8 0.053(5) 0.033(4) 0.06(4) 0.002(7) 0.003(8) 0.004(2)
N9 0.052(4) 0.029(3) 0.07(4) -0.004(5) -0.007(8) 0.001(2)
N10 0.062(6) 0.045(4) 0.18(6) -0.019(9) -0.011(11) 0.004(3)
N11 0.075(7) 0.054(6) 0.10(6) -0.036(11) 0.008(13) 0.002(4)
N12 0.070(6) 0.049(5) 0.05(5) -0.009(8) 0.007(10) 0.018(4)
loop_
_atom_type_symbol
_atom_type_description
_atom_type_scat_dispersion_real
_atom_type_scat_dispersion_imag
_atom_type_scat_source
C C -0.0001 0.0005 'International Tables Vol C Tables 4.2.6.8 and 6.1.1.4'
N N 0.0004 0.0010 'International Tables Vol C Tables 4.2.6.8 and 6.1.1.4'
loop_
_geom_angle_atom_site_label_1
_geom_angle_atom_site_label_2
_geom_angle_atom_site_label_3
_geom_angle
N2 C1 N1 125.8(17)
N2 C1 C5 114.5(12)
N1 C1 C5 120(2)
N2 C2 N3 124(2)
N2 C2 C6 120.1(12)
N3 C2 C6 115.7(19)
N3 C3 N1 129.1(11)
N3 C3 C4 113.2(17)
N1 C3 C4 118(2)
N4 C4 C3 175(3)
N5 C5 C1 175.5(14)
N6 C6 C2 173(4)
C3 N1 C1 111.9(19)
C2 N2 C1 115.6(12)
C3 N3 C2 113.4(18)
N7 C7 N8 129.9(17)
N7 C7 C11 113.2(11)
N8 C7 C11 116.5(18)
N9 C8 N8 126.7(10)
N9 C8 C12 118.3(19)
N8 C8 C12 114.9(16)
N9 C9 N7 125.1(16)
N9 C9 C10 120.3(16)
N7 C9 C10 114.2(10)
N10 C10 C9 175(3)
N11 C11 C7 175.3(11)
N12 C12 C8 175(3)
C7 N7 C9 112.1(10)
C7 N8 C8 111.4(16)
C9 N9 C8 114.3(16)
loop_
_geom_bond_atom_site_label_1
_geom_bond_atom_site_label_2
_geom_bond_distance
C1 N2 1.32(3)
C1 N1 1.344(14)
C1 C5 1.42(2)
C2 N2 1.31(2)
C2 N3 1.370(14)
C2 C6 1.41(4)
C3 N3 1.29(4)
C3 N1 1.33(3)
C3 C4 1.460(15)
C4 N4 1.148(12)
C5 N5 1.18(3)
C6 N6 1.14(4)
C7 N7 1.29(2)
C7 N8 1.320(12)
C7 C11 1.49(3)
C8 N9 1.32(2)
C8 N8 1.34(3)
C8 C12 1.465(14)
C9 N9 1.315(12)
C9 N7 1.38(2)
C9 C10 1.44(2)
C10 N10 1.13(2)
C11 N11 1.13(4)
C12 N12 1.126(12)
